&CONTROL
restart_mode = 'from_scratch',
calculation = 'scf',
outdir = '/gpfs/bb/bxp912/scratch',
pseudo_dir = '/gpfs/bb/bxp912/pseudopotentials',
prefix = '3.00000000E-001',
etot_conv_thr = 1.00000000E-007,
forc_conv_thr = 1.00000000E-007,
nstep = 200,
tprnfor = .true.,
tstress = .true.,
disk_io = 'low',
/
&SYSTEM
ibrav = 14,
celldm(1) = 3.05001797E+001,
celldm(2) = 1.00000000E+000,
celldm(3) = 1.00000000E+000,
celldm(4) = 0.00000000E+000,
celldm(5) = 0.00000000E+000,
celldm(6) = 0.00000000E+000,
nat = 256,
ntyp = 1,
ecutwfc = 35,
ecutrho = 208,
occupations = 'smearing',
smearing = 'mv',
degauss = 5.00000007E-002,
/
&ELECTRONS
diagonalization = 'david',
mixing_mode = plain,
mixing_beta = 6.99999988E-001,
conv_thr = 1.00000000E-007,
/
&IONS
ion_dynamics = 'bfgs',
/
&CELL
cell_dynamics = 'bfgs',
press = 0.00000000E+000,
cell_factor = 2.00000000E+000,
/
ATOMIC_SPECIES
Al  2.69815390E+001  Al.pbe-n-kjpaw_psl.0.1.UPF
ATOMIC_POSITIONS crystal
Al  -9.61144246E-004  1.80455524E-005  -8.08776407E-005
Al  1.24879219E-001  1.25019935E-001  1.68878600E-003
Al  1.24875897E-001  -3.02315826E-004  1.25184738E-001
Al  2.08609432E-003  1.24527728E-001  1.24981850E-001
Al  -2.27893885E-004  9.04452816E-004  2.52477471E-001
Al  1.25324787E-001  1.27115673E-001  2.50334601E-001
Al  1.24930653E-001  2.23305594E-003  3.72556924E-001
Al  1.58843670E-003  1.25018191E-001  3.74856983E-001
Al  -1.80344354E-003  -8.76024004E-006  5.00093866E-001
Al  1.25008542E-001  1.27499418E-001  4.99991599E-001
Al  1.24899764E-001  1.29307740E-003  6.22681409E-001
Al  3.26556737E-004  1.22742817E-001  6.24979929E-001
Al  -3.72386336E-005  -3.87222617E-005  7.51865613E-001
Al  1.25434005E-001  1.26717204E-001  7.51531242E-001
Al  1.25464245E-001  -6.22966390E-005  8.77414619E-001
Al  1.33699840E-003  1.24921646E-001  8.75321214E-001
Al  1.97108699E-003  2.49990883E-001  -4.49193018E-005
Al  1.22720647E-001  3.72604072E-001  2.42070043E-003
Al  1.23849623E-001  2.50442790E-001  1.26020710E-001
Al  -1.74787637E-003  3.74915043E-001  1.24785982E-001
Al  -3.48603007E-004  2.50948565E-001  2.50112413E-001
Al  1.22509944E-001  3.77315215E-001  2.49944038E-001
Al  1.24845538E-001  2.47503633E-001  3.74915422E-001
Al  -1.87164235E-005  3.75115681E-001  3.75024838E-001
Al  7.03109156E-005  2.52497883E-001  4.99936037E-001
Al  1.24980311E-001  3.76825493E-001  4.99990977E-001
Al  1.24835255E-001  2.50057438E-001  6.25862535E-001
Al  -7.01585250E-004  3.75361088E-001  6.25020675E-001
Al  -1.82380530E-005  2.49964230E-001  7.47502716E-001
Al  1.25551072E-001  3.77497469E-001  7.50060709E-001
Al  1.27222876E-001  2.52128154E-001  8.74902662E-001
Al  2.26496651E-003  3.73734849E-001  8.75469824E-001
Al  -4.82861945E-005  5.01235674E-001  1.41193370E-003
Al  1.25374396E-001  6.24978686E-001  1.88549730E-004
Al  1.24943665E-001  4.99843799E-001  1.26289617E-001
Al  -2.96000099E-004  6.23852334E-001  1.24832997E-001
Al  -9.59170251E-004  5.00300886E-001  2.47503100E-001
Al  1.24637648E-001  6.24506794E-001  2.50406410E-001
Al  1.23453860E-001  4.99639988E-001  3.75416053E-001
Al  -1.04933880E-003  6.24877259E-001  3.74702798E-001
Al  7.11059848E-005  4.98758959E-001  5.01202545E-001
Al  1.24295488E-001  6.27199656E-001  4.98584773E-001
Al  1.25532879E-001  5.00083121E-001  6.24829549E-001
Al  -1.16363314E-003  6.24991590E-001  6.24921625E-001
Al  9.67979362E-004  4.99135768E-001  7.48907772E-001
Al  1.24234199E-001  6.25133821E-001  7.51858550E-001
Al  1.22515564E-001  4.97614650E-001  8.73668936E-001
Al  -7.61724969E-004  6.24962863E-001  8.74990996E-001
Al  1.34815303E-004  7.50066974E-001  1.81214517E-005
Al  1.23434071E-001  8.72502021E-001  2.39128878E-004
Al  1.24941575E-001  7.51562044E-001  1.26224320E-001
Al  4.99566235E-004  8.75691109E-001  1.24599058E-001
Al  -2.46521568E-003  7.50386837E-001  2.51259986E-001
Al  1.24858654E-001  8.72993069E-001  2.49910370E-001
Al  1.25018299E-001  7.49802726E-001  3.76046690E-001
Al  2.29965871E-003  8.73980183E-001  3.75008901E-001
Al  5.94005869E-005  7.49308545E-001  5.00138586E-001
Al  1.24991624E-001  8.77316521E-001  5.00155548E-001
Al  1.25065908E-001  7.49980297E-001  6.25121031E-001
Al  1.69616594E-003  8.73030817E-001  6.25342359E-001
Al  -1.74848729E-003  7.52147476E-001  7.48333125E-001
Al  1.26457144E-001  8.74080026E-001  7.50008480E-001
Al  1.22996340E-001  7.50386560E-001  8.74822511E-001
Al  2.07044267E-003  8.75238061E-001  8.74915818E-001
Al  2.49647759E-001  1.29939526E-004  1.75648085E-005
Al  3.74936769E-001  1.25042999E-001  2.37269692E-004
Al  3.77384487E-001  2.35464912E-003  1.24976062E-001
Al  2.50018416E-001  1.25758343E-001  1.26323341E-001
Al  2.49991621E-001  -8.27973199E-005  2.47614464E-001
Al  3.76715720E-001  1.25406233E-001  2.49677649E-001
Al  3.75009162E-001  -1.05291200E-003  3.74934421E-001
Al  2.47946992E-001  1.24938680E-001  3.76190034E-001
Al  2.47786135E-001  1.73209908E-003  4.99981860E-001
Al  3.72710459E-001  1.27473115E-001  4.99625159E-001
Al  3.74973281E-001  -6.83373882E-004  6.26029840E-001
Al  2.50745721E-001  1.25106537E-001  6.24628527E-001
Al  2.49981639E-001  -2.49133982E-003  7.49526643E-001
Al  3.75033759E-001  1.23370412E-001  7.50516598E-001
Al  3.75788977E-001  -8.39683506E-006  8.75314837E-001
Al  2.50447377E-001  1.24818028E-001  8.72529585E-001
Al  2.50736319E-001  2.48816628E-001  6.43704044E-005
Al  3.75246758E-001  3.74982566E-001  -2.47957932E-003
Al  3.75596611E-001  2.51035053E-001  1.27204975E-001
Al  2.50677854E-001  3.72632718E-001  1.24740199E-001
Al  2.50008629E-001  2.48247104E-001  2.50648626E-001
Al  3.76912209E-001  3.72989452E-001  2.49412033E-001
Al  3.73907563E-001  2.48507995E-001  3.74869777E-001
Al  2.50051218E-001  3.76561374E-001  3.75470532E-001
Al  2.49134949E-001  2.48039275E-001  5.00979865E-001
Al  3.74870611E-001  3.74981877E-001  4.97655381E-001
Al  3.74871662E-001  2.51318359E-001  6.25108259E-001
Al  2.50097130E-001  3.72898036E-001  6.26720073E-001
Al  2.49549101E-001  2.52496986E-001  7.49766927E-001
Al  3.75036318E-001  3.77415367E-001  7.50112886E-001
Al  3.74822965E-001  2.51315960E-001  8.74756219E-001
Al  2.52242597E-001  3.76245644E-001  8.72673494E-001
Al  2.48364630E-001  5.00009306E-001  4.50204808E-004
Al  3.72929993E-001  6.25954577E-001  1.75764412E-004
Al  3.76010309E-001  5.02161973E-001  1.25026646E-001
Al  2.50018964E-001  6.25870636E-001  1.25172477E-001
Al  2.49136297E-001  5.00269515E-001  2.51762321E-001
Al  3.72589890E-001  6.24885638E-001  2.51293370E-001
Al  3.74696699E-001  5.00069928E-001  3.75246916E-001
Al  2.49935342E-001  6.23423307E-001  3.72989175E-001
Al  2.50166234E-001  5.02457520E-001  5.02326136E-001
Al  3.72915632E-001  6.27473456E-001  4.98042451E-001
Al  3.75093927E-001  5.01188545E-001  6.22739526E-001
Al  2.49920041E-001  6.25199159E-001  6.25484569E-001
Al  2.49981163E-001  5.00540828E-001  7.50339488E-001
Al  3.74400572E-001  6.27474051E-001  7.50037329E-001
Al  3.74721694E-001  4.99824456E-001  8.77426994E-001
Al  2.50122909E-001  6.24877892E-001  8.73725820E-001
Al  2.51569904E-001  7.47684432E-001  6.02436384E-004
Al  3.77473070E-001  8.75036539E-001  -6.14263747E-004
Al  3.76937765E-001  7.47677626E-001  1.25319542E-001
Al  2.47979127E-001  8.74942336E-001  1.24675561E-001
Al  2.51885776E-001  7.49981561E-001  2.50234263E-001
Al  3.72909765E-001  8.75018457E-001  2.49373155E-001
Al  3.74733842E-001  7.50018820E-001  3.74894288E-001
Al  2.47518452E-001  8.73321121E-001  3.72544732E-001
Al  2.48382660E-001  7.51391505E-001  5.00557023E-001
Al  3.74895280E-001  8.75718593E-001  4.99083841E-001
Al  3.74714746E-001  7.50379322E-001  6.25488967E-001
Al  2.49259719E-001  8.75067082E-001  6.25088385E-001
Al  2.49093585E-001  7.49746509E-001  7.47654052E-001
Al  3.75409315E-001  8.77488843E-001  7.49944044E-001
Al  3.75264874E-001  7.47790353E-001  8.74899110E-001
Al  2.47506736E-001  8.75958955E-001  8.75018757E-001
Al  5.01954655E-001  -1.42441766E-004  5.04363090E-005
Al  6.25435269E-001  1.22673356E-001  2.02713218E-005
Al  6.24971185E-001  -3.73540533E-004  1.25008379E-001
Al  5.00184890E-001  1.25273607E-001  1.23193081E-001
Al  4.99939358E-001  1.49025999E-003  2.49809413E-001
Al  6.24540425E-001  1.26913619E-001  2.50425230E-001
Al  6.25406889E-001  -2.31630604E-004  3.74885577E-001
Al  5.02440842E-001  1.24878434E-001  3.74100678E-001
Al  5.00018185E-001  2.47427187E-005  5.00008994E-001
Al  6.24210108E-001  1.26330592E-001  5.01325399E-001
Al  6.23185567E-001  -1.44438438E-004  6.24164831E-001
Al  4.99977755E-001  1.22526932E-001  6.27348432E-001
Al  5.00458814E-001  -2.80589351E-004  7.50009629E-001
Al  6.24982009E-001  1.23622488E-001  7.51127990E-001
Al  6.24628694E-001  -1.61446685E-003  8.75058298E-001
Al  5.00009213E-001  1.24858775E-001  8.73137300E-001
Al  5.00085862E-001  2.52368441E-001  -1.52159515E-003
Al  6.23056298E-001  3.75859738E-001  -1.44296882E-003
Al  6.22504831E-001  2.52136355E-001  1.24593302E-001
Al  5.02481804E-001  3.75324160E-001  1.24170926E-001
Al  4.99779984E-001  2.47504732E-001  2.47749882E-001
Al  6.24384917E-001  3.77470217E-001  2.50091809E-001
Al  6.27091793E-001  2.49017229E-001  3.75178810E-001
Al  5.00017650E-001  3.74977321E-001  3.75153289E-001
Al  5.00034917E-001  2.49463906E-001  4.99439803E-001
Al  6.24954381E-001  3.76475453E-001  4.97759423E-001
Al  6.25196579E-001  2.50765941E-001  6.22500706E-001
Al  4.99867930E-001  3.75603535E-001  6.23071349E-001
Al  5.00018367E-001  2.50073411E-001  7.50026192E-001
Al  6.23864382E-001  3.75693970E-001  7.50721556E-001
Al  6.24945205E-001  2.51795417E-001  8.75018121E-001
Al  5.02419029E-001  3.74990251E-001  8.74427193E-001
Al  4.99990167E-001  5.02281276E-001  2.08479340E-003
Al  6.23140642E-001  6.22554267E-001  -2.42589246E-003
Al  6.25018298E-001  4.99964452E-001  1.23973203E-001
Al  5.00928023E-001  6.27486862E-001  1.24399012E-001
Al  4.99372888E-001  4.99969569E-001  2.52499422E-001
Al  6.26454073E-001  6.25146729E-001  2.50756459E-001
Al  6.27111704E-001  5.02489288E-001  3.75008440E-001
Al  5.02299961E-001  6.22642488E-001  3.75275384E-001
Al  4.98741091E-001  5.00018558E-001  4.99780679E-001
Al  6.25182389E-001  6.25018289E-001  4.99240184E-001
Al  6.25028801E-001  5.02136696E-001  6.25269310E-001
Al  4.99692880E-001  6.24981121E-001  6.24911718E-001
Al  5.02477513E-001  4.99238383E-001  7.50622785E-001
Al  6.26471297E-001  6.22639446E-001  7.52276878E-001
Al  6.25480546E-001  4.99991255E-001  8.72626113E-001
Al  5.01050097E-001  6.25103273E-001  8.74790186E-001
Al  5.02023651E-001  7.48152233E-001  -1.43613124E-004
Al  6.25278804E-001  8.75270432E-001  1.37073954E-003
Al  6.25099216E-001  7.52221213E-001  1.26356542E-001
Al  4.99817679E-001  8.77164375E-001  1.23974122E-001
Al  4.99583572E-001  7.49843647E-001  2.50616218E-001
Al  6.26930952E-001  8.74991589E-001  2.47500474E-001
Al  6.24647209E-001  7.49951708E-001  3.74111209E-001
Al  5.00020549E-001  8.77499622E-001  3.74955712E-001
Al  5.00034671E-001  7.50048845E-001  5.01295555E-001
Al  6.23193232E-001  8.72525103E-001  5.01118023E-001
Al  6.22764435E-001  7.50069713E-001  6.24279651E-001
Al  4.99820901E-001  8.72557744E-001  6.25137230E-001
Al  5.01277712E-001  7.50040907E-001  7.49161298E-001
Al  6.24911083E-001  8.75018285E-001  7.51887443E-001
Al  6.26646519E-001  7.52398733E-001  8.74205181E-001
Al  4.99926838E-001  8.75067380E-001  8.76453351E-001
Al  7.50057907E-001  1.84224602E-005  1.83400651E-005
Al  8.74651503E-001  1.24664050E-001  -1.10480853E-003
Al  8.74961796E-001  3.29710711E-005  1.26207701E-001
Al  7.49931901E-001  1.25294866E-001  1.23766529E-001
Al  7.47500049E-001  1.99086893E-003  2.49871032E-001
Al  8.73606455E-001  1.25008594E-001  2.50530671E-001
Al  8.76548818E-001  -1.64119189E-004  3.75775666E-001
Al  7.50044653E-001  1.25073336E-001  3.73234096E-001
Al  7.50047731E-001  2.07375811E-003  4.97502843E-001
Al  8.74968082E-001  1.24969967E-001  4.99658257E-001
Al  8.72620462E-001  1.53858698E-003  6.22910204E-001
Al  7.48803873E-001  1.24415426E-001  6.24967296E-001
Al  7.52498847E-001  -1.96421248E-003  7.50207452E-001
Al  8.74491262E-001  1.24523652E-001  7.49991519E-001
Al  8.75236944E-001  7.18904459E-004  8.74569583E-001
Al  7.50953106E-001  1.24602274E-001  8.75025609E-001
Al  7.48493946E-001  2.47560869E-001  6.80278697E-004
Al  8.77007684E-001  3.75447734E-001  2.49997049E-003
Al  8.77362158E-001  2.48711313E-001  1.26184196E-001
Al  7.49981836E-001  3.75334261E-001  1.22520868E-001
Al  7.47614442E-001  2.50076760E-001  2.51751360E-001
Al  8.72588865E-001  3.72820904E-001  2.49359569E-001
Al  8.77380608E-001  2.49849498E-001  3.73734148E-001
Al  7.49991625E-001  3.75091429E-001  3.72723854E-001
Al  7.49818223E-001  2.48537363E-001  4.99209077E-001
Al  8.74812756E-001  3.74961174E-001  5.01923545E-001
Al  8.74912297E-001  2.48555886E-001  6.26406873E-001
Al  7.52126414E-001  3.74991610E-001  6.25243376E-001
Al  7.50521100E-001  2.52294283E-001  7.48381826E-001
Al  8.76685190E-001  3.74702505E-001  7.48134364E-001
Al  8.73257472E-001  2.49823273E-001  8.75048087E-001
Al  7.51668779E-001  3.75223277E-001  8.75018276E-001
Al  7.47917026E-001  4.97514556E-001  -8.43675397E-006
Al  8.74981059E-001  6.22653171E-001  -1.73190957E-003
Al  8.77443596E-001  4.99921987E-001  1.24964028E-001
Al  7.48649100E-001  6.26361108E-001  1.25009449E-001
Al  7.50058326E-001  5.02203089E-001  2.48597479E-001
Al  8.74739608E-001  6.22799426E-001  2.50091251E-001
Al  8.72618331E-001  5.00045803E-001  3.73226413E-001
Al  7.51410543E-001  6.24875510E-001  3.74930288E-001
Al  7.49638645E-001  5.00027718E-001  4.99965169E-001
Al  8.76962927E-001  6.27489024E-001  5.01741080E-001
Al  8.76079976E-001  5.00067374E-001  6.22839888E-001
Al  7.51852743E-001  6.25715849E-001  6.24914171E-001
Al  7.49354490E-001  4.97500873E-001  7.50842722E-001
Al  8.77210707E-001  6.25141499E-001  7.49922075E-001
Al  8.74744119E-001  5.02332664E-001  8.74449980E-001
Al  7.49981419E-001  6.24979995E-001  8.72838764E-001
Al  7.50008513E-001  7.49954600E-001  2.43782291E-003
Al  8.75032437E-001  8.74981847E-001  -1.71280574E-003
Al  8.74982363E-001  7.52029256E-001  1.22513061E-001
Al  7.51236577E-001  8.72575181E-001  1.25038093E-001
Al  7.50515855E-001  7.49916786E-001  2.47736759E-001
Al  8.75945738E-001  8.74981322E-001  2.50752807E-001
Al  8.75008371E-001  7.49097230E-001  3.76826905E-001
Al  7.47524312E-001  8.72596922E-001  3.74152577E-001
Al  7.47639862E-001  7.49701275E-001  4.97693049E-001
Al  8.76821510E-001  8.74090214E-001  4.99262468E-001
Al  8.72557908E-001  7.47510229E-001  6.24535344E-001
Al  7.49119804E-001  8.74979967E-001  6.25151825E-001
Al  7.52459431E-001  7.49448698E-001  7.51728475E-001
Al  8.75018913E-001  8.72665042E-001  7.47563092E-001
Al  8.75756515E-001  7.49114083E-001  8.75205029E-001
Al  7.50424462E-001  8.73266733E-001  8.75093326E-001
K_POINTS automatic
2 2 2 1 1 1
