&CONTROL
restart_mode = 'from_scratch',
calculation = 'scf',
outdir = '/gpfs/bb/bxp912/scratch',
pseudo_dir = '/gpfs/bb/bxp912/pseudopotentials',
prefix = '1.44000000E-001',
etot_conv_thr = 1.00000000E-007,
forc_conv_thr = 1.00000000E-007,
nstep = 200,
tprnfor = .true.,
tstress = .true.,
disk_io = 'low',
/
&SYSTEM
ibrav = 14,
celldm(1) = 8.07000000E+000,
celldm(2) = 1.00000000E+000,
celldm(3) = 1.00000000E+000,
celldm(4) = 0.00000000E+000,
celldm(5) = 0.00000000E+000,
celldm(6) = 0.00000000E+000,
nat = 32,
ntyp = 1,
ecutwfc = 35,
ecutrho = 208,
occupations = 'smearing',
smearing = 'mv',
degauss = 5.00000007E-002,
/
&ELECTRONS
diagonalization = 'david',
mixing_mode = plain,
mixing_beta = 6.99999988E-001,
conv_thr = 1.00000000E-007,
/
&IONS
ion_dynamics = 'bfgs',
/
&CELL
cell_dynamics = 'bfgs',
press = 0.00000000E+000,
cell_factor = 2.00000000E+000,
/
ATOMIC_SPECIES
Al  2.69815390E+001  Al.pbe-n-kjpaw_psl.0.1.UPF
ATOMIC_POSITIONS crystal
Al  1.15914259E-004  2.98165450E-003  1.87833069E-003
Al  2.49982793E-001  2.50716447E-001  -3.96912255E-003
Al  2.47921015E-001  -3.92557176E-003  2.49962425E-001
Al  4.68134778E-003  2.49862726E-001  2.46800241E-001
Al  1.68061731E-003  3.81967058E-005  4.98682500E-001
Al  2.50066401E-001  2.50017077E-001  5.04999509E-001
Al  2.46874521E-001  1.84033571E-003  7.50036800E-001
Al  1.75010877E-003  2.49414432E-001  7.51507691E-001
Al  3.44699753E-003  4.95123770E-001  4.40560006E-003
Al  2.50017337E-001  7.52623971E-001  1.26045386E-003
Al  2.53443101E-001  4.98588891E-001  2.49503817E-001
Al  2.61515535E-003  7.54302337E-001  2.49827437E-001
Al  -2.33227620E-004  4.96596815E-001  5.00045857E-001
Al  2.49957386E-001  7.45005269E-001  5.00466934E-001
Al  2.45655211E-001  4.97255630E-001  7.50037617E-001
Al  6.38144784E-004  7.53623344E-001  7.52775723E-001
Al  4.99107458E-001  -2.80238023E-004  4.72592954E-003
Al  7.45352949E-001  2.50690226E-001  4.81386858E-003
Al  7.52308908E-001  5.23115675E-004  2.54919661E-001
Al  4.96196032E-001  2.50394454E-001  2.49844157E-001
Al  4.99901179E-001  -3.57755646E-005  4.99916761E-001
Al  7.47511772E-001  2.50475927E-001  5.00041253E-001
Al  7.51804458E-001  4.75674528E-003  7.48392685E-001
Al  5.03938817E-001  2.53038771E-001  7.51461685E-001
Al  5.04839221E-001  4.97310441E-001  1.18259669E-004
Al  7.50742490E-001  7.50196275E-001  -4.83007659E-003
Al  7.50017706E-001  5.00036733E-001  2.48672888E-001
Al  5.03512869E-001  7.49059585E-001  2.50056515E-001
Al  4.99636278E-001  5.04223898E-001  4.96505124E-001
Al  7.49963508E-001  7.50016913E-001  4.99785411E-001
Al  7.49961034E-001  4.99946226E-001  7.54808760E-001
Al  5.02810835E-001  7.54968291E-001  7.45008368E-001
K_POINTS automatic
2 2 2 1 1 1
