&CONTROL
restart_mode = 'from_scratch',
calculation = 'scf',
outdir = '/gpfs/bb/bxp912/scratch',
pseudo_dir = '/gpfs/bb/bxp912/pseudopotentials',
prefix = '3.00000000E-001',
etot_conv_thr = 1.00000000E-007,
forc_conv_thr = 1.00000000E-007,
nstep = 200,
tprnfor = .true.,
tstress = .true.,
disk_io = 'low',
/
&SYSTEM
ibrav = 14,
celldm(1) = 3.05001797E+001,
celldm(2) = 1.00000000E+000,
celldm(3) = 1.00000000E+000,
celldm(4) = 0.00000000E+000,
celldm(5) = 0.00000000E+000,
celldm(6) = 0.00000000E+000,
nat = 256,
ntyp = 1,
ecutwfc = 35,
ecutrho = 208,
occupations = 'smearing',
smearing = 'mv',
degauss = 5.00000007E-002,
/
&ELECTRONS
diagonalization = 'david',
mixing_mode = plain,
mixing_beta = 6.99999988E-001,
conv_thr = 1.00000000E-007,
/
&IONS
ion_dynamics = 'bfgs',
/
&CELL
cell_dynamics = 'bfgs',
press = 0.00000000E+000,
cell_factor = 2.00000000E+000,
/
ATOMIC_SPECIES
Al  2.69815390E+001  Al.pbe-n-kjpaw_psl.0.1.UPF
ATOMIC_POSITIONS crystal
Al  -2.42614161E-005  -2.49404791E-003  1.62525910E-004
Al  1.24125700E-001  1.27000235E-001  -4.27332313E-005
Al  1.25008371E-001  -3.77117621E-004  1.22516147E-001
Al  -2.34530220E-003  1.22678602E-001  1.25018172E-001
Al  1.99413516E-003  2.60861109E-005  2.52268140E-001
Al  1.25281327E-001  1.22939728E-001  2.52384201E-001
Al  1.22610430E-001  2.39809771E-003  3.75328359E-001
Al  2.00367705E-003  1.25565118E-001  3.73208042E-001
Al  9.60997974E-004  2.43377597E-003  5.00716058E-001
Al  1.24981761E-001  1.27497262E-001  4.97751625E-001
Al  1.26002491E-001  1.00154960E-004  6.25018554E-001
Al  9.95717313E-004  1.25233777E-001  6.22755885E-001
Al  -9.57837354E-006  -4.75099885E-004  7.49894952E-001
Al  1.24656518E-001  1.26917238E-001  7.50221457E-001
Al  1.25502799E-001  2.24181668E-003  8.76748492E-001
Al  -2.46360860E-004  1.23038119E-001  8.75683531E-001
Al  2.98048917E-005  2.50585263E-001  -6.16534384E-004
Al  1.27052137E-001  3.74487141E-001  9.45636440E-004
Al  1.27005706E-001  2.49817167E-001  1.24457625E-001
Al  9.19284606E-005  3.74943322E-001  1.24569045E-001
Al  -8.12166247E-004  2.50114453E-001  2.49122238E-001
Al  1.25018117E-001  3.75368232E-001  2.52492278E-001
Al  1.24432260E-001  2.47899772E-001  3.75096622E-001
Al  4.24170551E-005  3.76630816E-001  3.75087315E-001
Al  -2.76583497E-004  2.49612377E-001  5.01002468E-001
Al  1.27324276E-001  3.75053990E-001  4.97500617E-001
Al  1.23361254E-001  2.49956555E-001  6.25281606E-001
Al  1.57057372E-003  3.76751052E-001  6.23295979E-001
Al  -1.05188538E-004  2.48679051E-001  7.49951272E-001
Al  1.26229818E-001  3.72541643E-001  7.47920123E-001
Al  1.25309000E-001  2.51172907E-001  8.74928005E-001
Al  1.75915053E-005  3.76678106E-001  8.75018323E-001
Al  -1.97636695E-003  4.98081240E-001  1.60199483E-003
Al  1.26373970E-001  6.24991607E-001  1.44264929E-004
Al  1.27242956E-001  4.97584647E-001  1.23059210E-001
Al  2.46102750E-003  6.27417071E-001  1.25578369E-001
Al  1.37615507E-003  5.00601899E-001  2.47879670E-001
Al  1.25771972E-001  6.23180793E-001  2.49425780E-001
Al  1.22573928E-001  4.97509736E-001  3.75008965E-001
Al  -2.06260914E-003  6.27023021E-001  3.76307997E-001
Al  -4.26222837E-004  5.01188603E-001  5.01091618E-001
Al  1.25018138E-001  6.27062074E-001  5.02375716E-001
Al  1.25424845E-001  4.99990592E-001  6.22688880E-001
Al  -3.26028976E-004  6.23265826E-001  6.24970920E-001
Al  1.49139241E-004  4.99542309E-001  7.50310310E-001
Al  1.26206694E-001  6.26337197E-001  7.49675989E-001
Al  1.24981616E-001  4.97526266E-001  8.73087524E-001
Al  -2.03424062E-003  6.25110488E-001  8.74945976E-001
Al  1.47750145E-003  7.50021413E-001  -7.94741616E-004
Al  1.24942488E-001  8.76958076E-001  1.66240806E-003
Al  1.25166326E-001  7.48811886E-001  1.27287329E-001
Al  1.81394637E-005  8.74990897E-001  1.25566808E-001
Al  7.49233510E-004  7.49873318E-001  2.51203388E-001
Al  1.26918093E-001  8.74969451E-001  2.49140875E-001
Al  1.25958246E-001  7.50167740E-001  3.73682626E-001
Al  1.60006297E-004  8.77341252E-001  3.74377616E-001
Al  -2.41005492E-003  7.49484642E-001  5.01311039E-001
Al  1.25760752E-001  8.73572120E-001  4.99621957E-001
Al  1.24955338E-001  7.50262704E-001  6.22792899E-001
Al  5.20350352E-005  8.75008502E-001  6.24120122E-001
Al  -4.96445296E-004  7.50477657E-001  7.48181060E-001
Al  1.24524853E-001  8.74980997E-001  7.51417338E-001
Al  1.26050407E-001  7.49614749E-001  8.75375553E-001
Al  -6.30613781E-004  8.74806579E-001  8.74991624E-001
Al  2.51777509E-001  -2.27761921E-003  -1.85062498E-005
Al  3.75423244E-001  1.25119668E-001  -1.91767946E-005
Al  3.74981501E-001  -4.75138223E-004  1.25859292E-001
Al  2.52497404E-001  1.24894132E-001  1.24979942E-001
Al  2.51247778E-001  1.16908911E-003  2.49878320E-001
Al  3.77369280E-001  1.24990231E-001  2.49937606E-001
Al  3.76488243E-001  2.33540733E-003  3.74826664E-001
Al  2.51153871E-001  1.24870023E-001  3.75179553E-001
Al  2.47726188E-001  3.13428782E-004  4.99981790E-001
Al  3.76925192E-001  1.24957359E-001  5.00048626E-001
Al  3.75127660E-001  -9.65558849E-005  6.25032161E-001
Al  2.50286707E-001  1.25022500E-001  6.24591421E-001
Al  2.47895620E-001  -3.23739849E-004  7.49973240E-001
Al  3.73842427E-001  1.25161101E-001  7.49705724E-001
Al  3.75175329E-001  -1.91239560E-003  8.76030847E-001
Al  2.49050071E-001  1.25021098E-001  8.74243274E-001
Al  2.50717540E-001  2.49681906E-001  -2.38367941E-003
Al  3.74964912E-001  3.72732367E-001  1.32544768E-003
Al  3.72545645E-001  2.50376123E-001  1.27210193E-001
Al  2.49949675E-001  3.75017844E-001  1.24018654E-001
Al  2.49928446E-001  2.50732214E-001  2.50216599E-001
Al  3.75565545E-001  3.76186289E-001  2.50029862E-001
Al  3.76659627E-001  2.49962775E-001  3.73517012E-001
Al  2.49822624E-001  3.75236000E-001  3.73470580E-001
Al  2.50479367E-001  2.48978729E-001  4.99846832E-001
Al  3.75008534E-001  3.75009256E-001  4.99554621E-001
Al  3.76962426E-001  2.49981331E-001  6.24981871E-001
Al  2.50024661E-001  3.75149678E-001  6.24593656E-001
Al  2.47845681E-001  2.49415080E-001  7.50112244E-001
Al  3.75009491E-001  3.77468180E-001  7.52499829E-001
Al  3.74860126E-001  2.47824642E-001  8.74967732E-001
Al  2.47517664E-001  3.75531934E-001  8.75929916E-001
Al  2.51362943E-001  5.00008416E-001  -2.82549790E-004
Al  3.72589471E-001  6.24826014E-001  -8.66346201E-006
Al  3.74917469E-001  4.99973990E-001  1.22515034E-001
Al  2.48393520E-001  6.25021387E-001  1.25028855E-001
Al  2.49991036E-001  5.00103650E-001  2.49779143E-001
Al  3.74449327E-001  6.22629737E-001  2.50123963E-001
Al  3.74946427E-001  4.97501532E-001  3.74904897E-001
Al  2.48877899E-001  6.22605085E-001  3.76293436E-001
Al  2.49941562E-001  4.99943365E-001  5.00018371E-001
Al  3.72539902E-001  6.25074516E-001  5.02326399E-001
Al  3.72671927E-001  5.00018111E-001  6.24817531E-001
Al  2.50072417E-001  6.25277089E-001  6.25651739E-001
Al  2.47732244E-001  5.00126058E-001  7.47525510E-001
Al  3.74981675E-001  6.22525317E-001  7.49656959E-001
Al  3.74875366E-001  4.99981856E-001  8.73341692E-001
Al  2.51437952E-001  6.25112337E-001  8.77429454E-001
Al  2.49924412E-001  7.47500871E-001  -1.43968263E-004
Al  3.75639530E-001  8.75020373E-001  -2.02238821E-005
Al  3.77398399E-001  7.47982541E-001  1.26733915E-001
Al  2.50239202E-001  8.75775532E-001  1.25455558E-001
Al  2.49530417E-001  7.49891716E-001  2.51903860E-001
Al  3.75126228E-001  8.75657640E-001  2.50333815E-001
Al  3.77466231E-001  7.50008752E-001  3.74490487E-001
Al  2.49641002E-001  8.73320935E-001  3.74556893E-001
Al  2.52379635E-001  7.50076892E-001  4.99789832E-001
Al  3.76085940E-001  8.75009186E-001  4.99819708E-001
Al  3.76566627E-001  7.50008429E-001  6.26290523E-001
Al  2.49981386E-001  8.76788436E-001  6.25054209E-001
Al  2.51107709E-001  7.49982946E-001  7.50354978E-001
Al  3.75892150E-001  8.74991128E-001  7.49990827E-001
Al  3.74129547E-001  7.49799758E-001  8.76402313E-001
Al  2.52441984E-001  8.75165720E-001  8.75096210E-001
Al  4.98793611E-001  -2.36353896E-003  -5.28283463E-004
Al  6.23391666E-001  1.25009589E-001  -9.19013495E-006
Al  6.24367494E-001  -2.42359725E-003  1.24592363E-001
Al  4.98999103E-001  1.25707478E-001  1.22593271E-001
Al  5.02407987E-001  6.50855589E-004  2.49959336E-001
Al  6.24558776E-001  1.23313067E-001  2.52063769E-001
Al  6.23593847E-001  -2.04378773E-003  3.72537071E-001
Al  4.99981885E-001  1.26491388E-001  3.74897435E-001
Al  4.98470559E-001  3.89833395E-004  5.00112957E-001
Al  6.22500002E-001  1.26904857E-001  5.00128101E-001
Al  6.22931873E-001  2.09605397E-003  6.24904033E-001
Al  5.00049832E-001  1.25104615E-001  6.24792449E-001
Al  5.00128838E-001  2.49202518E-003  7.49246029E-001
Al  6.23888311E-001  1.24480019E-001  7.47550699E-001
Al  6.24739408E-001  -1.69132977E-003  8.74991278E-001
Al  4.98726014E-001  1.25087339E-001  8.75147218E-001
Al  5.01454521E-001  2.50893643E-001  -2.08806485E-003
Al  6.23232424E-001  3.76756480E-001  1.07889775E-003
Al  6.23448085E-001  2.50054545E-001  1.24981322E-001
Al  4.98949985E-001  3.73377663E-001  1.25766165E-001
Al  5.00019648E-001  2.50067149E-001  2.51123968E-001
Al  6.25173913E-001  3.75092958E-001  2.50199624E-001
Al  6.25812174E-001  2.50191792E-001  3.74877188E-001
Al  4.99920329E-001  3.72567702E-001  3.75745667E-001
Al  4.99742963E-001  2.47748357E-001  5.00459876E-001
Al  6.27228485E-001  3.73984316E-001  5.02495804E-001
Al  6.23062467E-001  2.48518762E-001  6.23976740E-001
Al  4.98363490E-001  3.72938699E-001  6.24317147E-001
Al  5.00058631E-001  2.48182463E-001  7.49630027E-001
Al  6.24792153E-001  3.74981064E-001  7.49935650E-001
Al  6.22611804E-001  2.52033978E-001  8.75054614E-001
Al  5.00008439E-001  3.73496479E-001  8.72644154E-001
Al  4.99268605E-001  5.01588138E-001  3.59105258E-004
Al  6.22972157E-001  6.25085193E-001  2.89672573E-004
Al  6.25019125E-001  5.00180412E-001  1.27395332E-001
Al  4.97649349E-001  6.24531065E-001  1.25039559E-001
Al  5.00697580E-001  4.99802406E-001  2.49894043E-001
Al  6.24991325E-001  6.24211039E-001  2.49918627E-001
Al  6.25208638E-001  5.00098441E-001  3.73339509E-001
Al  4.99974039E-001  6.24952023E-001  3.76103605E-001
Al  4.97596608E-001  5.00018536E-001  4.98637406E-001
Al  6.24821322E-001  6.24912136E-001  4.97875439E-001
Al  6.24981871E-001  4.99746720E-001  6.23034962E-001
Al  5.02119038E-001  6.24471188E-001  6.25108143E-001
Al  5.02408447E-001  5.00030525E-001  7.49553691E-001
Al  6.22768614E-001  6.25091674E-001  7.50275268E-001
Al  6.25009769E-001  4.97553446E-001  8.77072151E-001
Al  5.00151986E-001  6.27499327E-001  8.75033675E-001
Al  5.00917927E-001  7.49561198E-001  2.29672664E-003
Al  6.22902775E-001  8.76372140E-001  8.37025080E-006
Al  6.25530415E-001  7.49497527E-001  1.25210843E-001
Al  5.00283223E-001  8.74990927E-001  1.27141554E-001
Al  4.99892867E-001  7.48703933E-001  2.50018733E-001
Al  6.24888823E-001  8.75023386E-001  2.50083177E-001
Al  6.25840261E-001  7.49913287E-001  3.77464591E-001
Al  4.99980135E-001  8.75056169E-001  3.77359281E-001
Al  4.97895512E-001  7.49967103E-001  5.02453841E-001
Al  6.27468273E-001  8.73715985E-001  5.00019952E-001
Al  6.23040953E-001  7.50110896E-001  6.24558350E-001
Al  5.00655726E-001  8.74399427E-001  6.26042269E-001
Al  5.00038269E-001  7.50234348E-001  7.50600096E-001
Al  6.26247281E-001  8.74767613E-001  7.52374872E-001
Al  6.25034549E-001  7.50040081E-001  8.74441947E-001
Al  4.99561449E-001  8.76990758E-001  8.74115819E-001
Al  7.48989370E-001  2.48374728E-003  8.80378155E-004
Al  8.74762679E-001  1.22854753E-001  -2.71984464E-004
Al  8.76023993E-001  -2.20023707E-003  1.24969996E-001
Al  7.51593765E-001  1.22505804E-001  1.27350126E-001
Al  7.49434711E-001  -8.42523208E-006  2.52215329E-001
Al  8.74880683E-001  1.23514789E-001  2.50029865E-001
Al  8.75229715E-001  -2.46597204E-003  3.75466702E-001
Al  7.51060169E-001  1.22660534E-001  3.77182612E-001
Al  7.48811789E-001  -1.67272363E-003  5.02296044E-001
Al  8.72503207E-001  1.24958899E-001  4.97597055E-001
Al  8.74982123E-001  -1.82841463E-005  6.22522758E-001
Al  7.52324268E-001  1.25018108E-001  6.26432829E-001
Al  7.51792203E-001  5.50363457E-005  7.49954400E-001
Al  8.74722810E-001  1.25884749E-001  7.51839942E-001
Al  8.75101804E-001  1.28945440E-004  8.74991630E-001
Al  7.50044864E-001  1.22683290E-001  8.75781362E-001
Al  7.49981198E-001  2.51719334E-001  -1.53274594E-003
Al  8.73579603E-001  3.75018388E-001  -8.54402814E-006
Al  8.74967452E-001  2.52068671E-001  1.25137038E-001
Al  7.50639472E-001  3.75009297E-001  1.26569714E-001
Al  7.50035110E-001  2.50096612E-001  2.48024452E-001
Al  8.75008956E-001  3.75223224E-001  2.47887852E-001
Al  8.75812144E-001  2.48423737E-001  3.75623798E-001
Al  7.49102995E-001  3.75008751E-001  3.75598040E-001
Al  7.49205190E-001  2.50047464E-001  5.01341542E-001
Al  8.74991495E-001  3.74860189E-001  5.00955601E-001
Al  8.74944545E-001  2.52245828E-001  6.24734089E-001
Al  7.52388947E-001  3.74772642E-001  6.24991132E-001
Al  7.52140644E-001  2.50696529E-001  7.50187602E-001
Al  8.75168897E-001  3.73510943E-001  7.50051372E-001
Al  8.74982348E-001  2.49962317E-001  8.74027549E-001
Al  7.50105771E-001  3.74905623E-001  8.74938289E-001
Al  7.52002374E-001  4.97798437E-001  -2.47517665E-004
Al  8.77486306E-001  6.27470627E-001  1.95724746E-005
Al  8.74981478E-001  5.02399875E-001  1.24910557E-001
Al  7.49793321E-001  6.25506855E-001  1.24981759E-001
Al  7.50026521E-001  4.99030202E-001  2.49990434E-001
Al  8.74852340E-001  6.23723588E-001  2.49628157E-001
Al  8.76557779E-001  4.98123417E-001  3.75008713E-001
Al  7.47666195E-001  6.24942024E-001  3.75008374E-001
Al  7.48500028E-001  4.99832260E-001  5.01017612E-001
Al  8.74956820E-001  6.23172585E-001  5.00134182E-001
Al  8.74991533E-001  4.99990939E-001  6.23449680E-001
Al  7.48641334E-001  6.26755294E-001  6.23520560E-001
Al  7.49725085E-001  4.99806614E-001  7.50547054E-001
Al  8.74916509E-001  6.27303120E-001  7.50039257E-001
Al  8.73915532E-001  4.99809712E-001  8.75563793E-001
Al  7.47623006E-001  6.26210443E-001  8.75074486E-001
Al  7.49478707E-001  7.49912450E-001  -2.29571423E-003
Al  8.74981846E-001  8.73033074E-001  6.47485955E-004
Al  8.72583959E-001  7.49981286E-001  1.27499954E-001
Al  7.49928802E-001  8.76473089E-001  1.24991201E-001
Al  7.47823967E-001  7.50032971E-001  2.50736764E-001
Al  8.75025252E-001  8.74912086E-001  2.48133829E-001
Al  8.74982159E-001  7.49360124E-001  3.74971064E-001
Al  7.50024639E-001  8.74979474E-001  3.74981279E-001
Al  7.50110414E-001  7.50017200E-001  5.00772478E-001
Al  8.72617573E-001  8.77198880E-001  5.00151742E-001
Al  8.75008419E-001  7.50225626E-001  6.26570944E-001
Al  7.50068449E-001  8.72904226E-001  6.24727616E-001
Al  7.52494020E-001  7.51235512E-001  7.50027650E-001
Al  8.75063528E-001  8.75008398E-001  7.49223311E-001
Al  8.75360820E-001  7.49512183E-001  8.77325794E-001
Al  7.49910303E-001  8.75027471E-001  8.73679908E-001
K_POINTS automatic
2 2 2 1 1 1
