&CONTROL
restart_mode = 'from_scratch',
calculation = 'scf',
outdir = '/gpfs/bb/bxp912/scratch',
pseudo_dir = '/gpfs/bb/bxp912/pseudopotentials',
prefix = '1.44000000E-001',
etot_conv_thr = 1.00000000E-007,
forc_conv_thr = 1.00000000E-007,
nstep = 200,
tprnfor = .true.,
tstress = .true.,
disk_io = 'low',
/
&SYSTEM
ibrav = 14,
celldm(1) = 8.47350000E+000,
celldm(2) = 1.00000000E+000,
celldm(3) = 8.63837599E-001,
celldm(4) = 0.00000000E+000,
celldm(5) = 0.00000000E+000,
celldm(6) = 0.00000000E+000,
nat = 32,
ntyp = 1,
ecutwfc = 35,
ecutrho = 208,
occupations = 'smearing',
smearing = 'mv',
degauss = 5.00000007E-002,
/
&ELECTRONS
diagonalization = 'david',
mixing_mode = plain,
mixing_beta = 6.99999988E-001,
conv_thr = 1.00000000E-007,
/
&IONS
ion_dynamics = 'bfgs',
/
&CELL
cell_dynamics = 'bfgs',
press = 0.00000000E+000,
cell_factor = 2.00000000E+000,
/
ATOMIC_SPECIES
Al  2.69815390E+001  Al.pbe-n-kjpaw_psl.0.1.UPF
ATOMIC_POSITIONS crystal
Al  0.00000000E+000  0.00000000E+000  0.00000000E+000
Al  2.50000000E-001  2.50000000E-001  0.00000000E+000
Al  2.50000000E-001  0.00000000E+000  2.50000000E-001
Al  0.00000000E+000  2.50000000E-001  2.50000000E-001
Al  0.00000000E+000  0.00000000E+000  5.00000000E-001
Al  2.50000000E-001  2.50000000E-001  5.00000000E-001
Al  2.50000000E-001  0.00000000E+000  7.50000000E-001
Al  0.00000000E+000  2.50000000E-001  7.50000000E-001
Al  0.00000000E+000  5.00000000E-001  0.00000000E+000
Al  2.50000000E-001  7.50000000E-001  0.00000000E+000
Al  2.50000000E-001  5.00000000E-001  2.50000000E-001
Al  0.00000000E+000  7.50000000E-001  2.50000000E-001
Al  0.00000000E+000  5.00000000E-001  5.00000000E-001
Al  2.50000000E-001  7.50000000E-001  5.00000000E-001
Al  2.50000000E-001  5.00000000E-001  7.50000000E-001
Al  0.00000000E+000  7.50000000E-001  7.50000000E-001
Al  5.00000000E-001  0.00000000E+000  0.00000000E+000
Al  7.50000000E-001  2.50000000E-001  0.00000000E+000
Al  7.50000000E-001  0.00000000E+000  2.50000000E-001
Al  5.00000000E-001  2.50000000E-001  2.50000000E-001
Al  5.00000000E-001  0.00000000E+000  5.00000000E-001
Al  7.50000000E-001  2.50000000E-001  5.00000000E-001
Al  7.50000000E-001  0.00000000E+000  7.50000000E-001
Al  5.00000000E-001  2.50000000E-001  7.50000000E-001
Al  5.00000000E-001  5.00000000E-001  0.00000000E+000
Al  7.50000000E-001  7.50000000E-001  0.00000000E+000
Al  7.50000000E-001  5.00000000E-001  2.50000000E-001
Al  5.00000000E-001  7.50000000E-001  2.50000000E-001
Al  5.00000000E-001  5.00000000E-001  5.00000000E-001
Al  7.50000000E-001  7.50000000E-001  5.00000000E-001
Al  7.50000000E-001  5.00000000E-001  7.50000000E-001
Al  5.00000000E-001  7.50000000E-001  7.50000000E-001
K_POINTS automatic
2 2 2 1 1 1
