&CONTROL
restart_mode = 'from_scratch',
calculation = 'scf',
outdir = '/gpfs/bb/bxp912/scratch',
pseudo_dir = '/gpfs/bb/bxp912/pseudopotentials',
prefix = '3.00000000E-001',
etot_conv_thr = 1.00000000E-007,
forc_conv_thr = 1.00000000E-007,
nstep = 200,
tprnfor = .true.,
tstress = .true.,
disk_io = 'low',
/
&SYSTEM
ibrav = 14,
celldm(1) = 3.05001797E+001,
celldm(2) = 1.00000000E+000,
celldm(3) = 1.00000000E+000,
celldm(4) = 0.00000000E+000,
celldm(5) = 0.00000000E+000,
celldm(6) = 0.00000000E+000,
nat = 256,
ntyp = 1,
ecutwfc = 35,
ecutrho = 208,
occupations = 'smearing',
smearing = 'mv',
degauss = 5.00000007E-002,
/
&ELECTRONS
diagonalization = 'david',
mixing_mode = plain,
mixing_beta = 6.99999988E-001,
conv_thr = 1.00000000E-007,
/
&IONS
ion_dynamics = 'bfgs',
/
&CELL
cell_dynamics = 'bfgs',
press = 0.00000000E+000,
cell_factor = 2.00000000E+000,
/
ATOMIC_SPECIES
Al  2.69815390E+001  Al.pbe-n-kjpaw_psl.0.1.UPF
ATOMIC_POSITIONS crystal
Al  1.26341590E-003  3.25470841E-004  3.96844546E-004
Al  1.25008914E-001  1.25979690E-001  1.05843354E-004
Al  1.27432293E-001  2.28132765E-004  1.22500118E-001
Al  -6.81139087E-005  1.27403748E-001  1.24940293E-001
Al  1.64478241E-004  -1.11844457E-003  2.51820975E-001
Al  1.25599201E-001  1.24895199E-001  2.52488823E-001
Al  1.25631666E-001  2.45092834E-003  3.77497683E-001
Al  3.65293303E-005  1.23573792E-001  3.74882133E-001
Al  2.31181210E-003  8.96474287E-005  4.99729221E-001
Al  1.25063716E-001  1.25373322E-001  4.99981604E-001
Al  1.25597755E-001  -2.07000510E-003  6.27105139E-001
Al  2.23255042E-004  1.27446642E-001  6.27317188E-001
Al  -1.92236707E-003  -1.90557900E-003  7.50081628E-001
Al  1.25385166E-001  1.23468128E-001  7.49711981E-001
Al  1.25681962E-001  -8.65963460E-004  8.74507838E-001
Al  -3.79577620E-005  1.24679552E-001  8.74980664E-001
Al  -2.89026559E-004  2.50008642E-001  -1.73315070E-003
Al  1.22837621E-001  3.73056175E-001  -2.92564405E-004
Al  1.24892075E-001  2.48384640E-001  1.25278654E-001
Al  -1.57883316E-003  3.75701660E-001  1.23816046E-001
Al  -1.45326912E-003  2.48429127E-001  2.50009417E-001
Al  1.22998630E-001  3.73428762E-001  2.47964992E-001
Al  1.25034266E-001  2.48903744E-001  3.74982692E-001
Al  8.68734894E-005  3.72989516E-001  3.74990483E-001
Al  -9.54289686E-004  2.48037148E-001  4.99928989E-001
Al  1.25826160E-001  3.76960113E-001  5.01542971E-001
Al  1.27256209E-001  2.48617381E-001  6.26705595E-001
Al  2.32920670E-003  3.73782541E-001  6.24702844E-001
Al  6.60874879E-004  2.51768651E-001  7.52394550E-001
Al  1.24991595E-001  3.74420160E-001  7.49990958E-001
Al  1.27083814E-001  2.49916640E-001  8.74708524E-001
Al  7.38892169E-004  3.75849761E-001  8.76757225E-001
Al  2.34257575E-003  4.98371503E-001  6.07686293E-005
Al  1.24991487E-001  6.24750763E-001  4.03361603E-004
Al  1.26842441E-001  5.00749724E-001  1.27092044E-001
Al  6.98831246E-004  6.24266836E-001  1.25008882E-001
Al  -1.26173815E-003  5.01041926E-001  2.50075363E-001
Al  1.27210721E-001  6.25932618E-001  2.50237618E-001
Al  1.23349421E-001  4.97536937E-001  3.74755791E-001
Al  -8.36813731E-004  6.25254389E-001  3.75018465E-001
Al  9.31695998E-006  5.00153491E-001  4.97572577E-001
Al  1.27063653E-001  6.25412189E-001  5.00197784E-001
Al  1.25068161E-001  4.98804715E-001  6.25018114E-001
Al  -2.09280508E-004  6.24991536E-001  6.25008612E-001
Al  -1.50519195E-003  5.02203221E-001  7.50327906E-001
Al  1.22559455E-001  6.23197283E-001  7.50077022E-001
Al  1.26030133E-001  5.01395492E-001  8.74642929E-001
Al  -1.07293328E-003  6.23395818E-001  8.74142052E-001
Al  1.83951364E-003  7.47828304E-001  8.99890372E-005
Al  1.25009226E-001  8.74568434E-001  4.28573069E-005
Al  1.24570955E-001  7.48015850E-001  1.27345707E-001
Al  8.53857274E-006  8.74910912E-001  1.25418316E-001
Al  -8.35880780E-004  7.49865911E-001  2.49942637E-001
Al  1.26333788E-001  8.73228606E-001  2.50539832E-001
Al  1.25743772E-001  7.50274143E-001  3.77374888E-001
Al  1.81083655E-004  8.75187132E-001  3.74904016E-001
Al  1.94198211E-003  7.49073612E-001  5.00712969E-001
Al  1.24757691E-001  8.73527088E-001  4.99830517E-001
Al  1.22622772E-001  7.51083829E-001  6.25066954E-001
Al  7.74836849E-004  8.75201325E-001  6.23873082E-001
Al  -1.23989931E-003  7.49552283E-001  7.51146499E-001
Al  1.24976968E-001  8.75066096E-001  7.50041019E-001
Al  1.25262358E-001  7.50081094E-001  8.74862778E-001
Al  9.15663734E-006  8.75045336E-001  8.77422257E-001
Al  2.50068121E-001  4.71424433E-004  -1.51043922E-004
Al  3.77479629E-001  1.27160414E-001  4.36259982E-005
Al  3.75637195E-001  -1.58942645E-004  1.26022493E-001
Al  2.50259625E-001  1.25345850E-001  1.26699795E-001
Al  2.48071739E-001  3.75999341E-005  2.50204967E-001
Al  3.74963787E-001  1.22703984E-001  2.49964479E-001
Al  3.75074447E-001  -2.40940193E-003  3.74961548E-001
Al  2.47612953E-001  1.23420223E-001  3.74300323E-001
Al  2.50023184E-001  -9.22238829E-005  4.98024202E-001
Al  3.75092388E-001  1.27106634E-001  5.02482628E-001
Al  3.74839216E-001  2.46931419E-003  6.23104073E-001
Al  2.47504158E-001  1.24191398E-001  6.25717085E-001
Al  2.51955160E-001  4.95649680E-004  7.49033782E-001
Al  3.74919248E-001  1.25146292E-001  7.47559350E-001
Al  3.75019990E-001  1.81394533E-003  8.73084046E-001
Al  2.49920054E-001  1.27371597E-001  8.72630979E-001
Al  2.51898615E-001  2.49991231E-001  -3.67432377E-005
Al  3.75091173E-001  3.73798794E-001  1.96312659E-003
Al  3.74991608E-001  2.51715053E-001  1.26765189E-001
Al  2.49251581E-001  3.75474491E-001  1.24980054E-001
Al  2.50556946E-001  2.52362772E-001  2.50797046E-001
Al  3.75034094E-001  3.75492766E-001  2.49066989E-001
Al  3.76751049E-001  2.47523228E-001  3.74980847E-001
Al  2.48924586E-001  3.72604038E-001  3.74910964E-001
Al  2.49330757E-001  2.50068966E-001  5.00665905E-001
Al  3.74715090E-001  3.77093309E-001  4.98583328E-001
Al  3.75018124E-001  2.49382932E-001  6.25435425E-001
Al  2.49686138E-001  3.74238007E-001  6.25019279E-001
Al  2.48026657E-001  2.50019626E-001  7.50389638E-001
Al  3.77486909E-001  3.74520758E-001  7.50294534E-001
Al  3.75738822E-001  2.50923372E-001  8.75008383E-001
Al  2.51189636E-001  3.74710546E-001  8.75234909E-001
Al  2.52140525E-001  4.99837771E-001  1.52127509E-003
Al  3.72501340E-001  6.24659798E-001  5.49171877E-005
Al  3.72866888E-001  5.00354677E-001  1.24981311E-001
Al  2.50020079E-001  6.22654159E-001  1.23113084E-001
Al  2.47503785E-001  5.01426132E-001  2.52499935E-001
Al  3.75170801E-001  6.27166880E-001  2.50473459E-001
Al  3.75026399E-001  5.00472184E-001  3.75136176E-001
Al  2.49769932E-001  6.23355312E-001  3.74105071E-001
Al  2.50325366E-001  5.02233968E-001  5.02183850E-001
Al  3.72676913E-001  6.24438158E-001  5.01639148E-001
Al  3.74627149E-001  5.00124482E-001  6.22609079E-001
Al  2.47813975E-001  6.27485216E-001  6.27390980E-001
Al  2.50050348E-001  5.01508698E-001  7.47595973E-001
Al  3.75291913E-001  6.24359482E-001  7.47951733E-001
Al  3.73102608E-001  4.98624908E-001  8.73948558E-001
Al  2.49839428E-001  6.26099674E-001  8.77448344E-001
Al  2.47946843E-001  7.52331925E-001  1.72884574E-003
Al  3.75255322E-001  8.72977494E-001  -7.64107096E-005
Al  3.72506652E-001  7.47541600E-001  1.24981668E-001
Al  2.48311288E-001  8.74087592E-001  1.25009362E-001
Al  2.49820252E-001  7.47958013E-001  2.50717945E-001
Al  3.72851235E-001  8.74016571E-001  2.49884334E-001
Al  3.74990194E-001  7.50090199E-001  3.75018067E-001
Al  2.49108935E-001  8.76061893E-001  3.74711629E-001
Al  2.49761046E-001  7.50456240E-001  4.99843814E-001
Al  3.74972438E-001  8.74937898E-001  5.00152235E-001
Al  3.76260246E-001  7.49959756E-001  6.25272010E-001
Al  2.51698538E-001  8.72616812E-001  6.27163735E-001
Al  2.51054755E-001  7.50367288E-001  7.49384282E-001
Al  3.73992268E-001  8.74260655E-001  7.49572726E-001
Al  3.75888635E-001  7.52494375E-001  8.73115812E-001
Al  2.49929679E-001  8.77360131E-001  8.75056548E-001
Al  4.99640600E-001  -1.70550229E-003  -1.91159034E-003
Al  6.25009574E-001  1.26700199E-001  -2.51376171E-005
Al  6.23517959E-001  8.82015671E-006  1.25008657E-001
Al  4.99558257E-001  1.25168012E-001  1.22524162E-001
Al  5.00230584E-001  7.63450491E-005  2.49937880E-001
Al  6.25543464E-001  1.26362925E-001  2.49570261E-001
Al  6.25054908E-001  -1.64457300E-003  3.75140707E-001
Al  4.99434054E-001  1.22624624E-001  3.76091352E-001
Al  4.97840304E-001  8.92278254E-004  5.00812262E-001
Al  6.23807430E-001  1.25185357E-001  4.97680066E-001
Al  6.25464784E-001  -2.30812982E-003  6.25117497E-001
Al  5.00495444E-001  1.24991459E-001  6.26902666E-001
Al  5.00256131E-001  -2.99169176E-005  7.50673752E-001
Al  6.25008591E-001  1.24931037E-001  7.51883857E-001
Al  6.22532224E-001  -2.10381361E-003  8.75097624E-001
Al  4.98108848E-001  1.27231289E-001  8.74568804E-001
Al  4.99860927E-001  2.49786175E-001  -2.02082019E-005
Al  6.25019665E-001  3.74991284E-001  4.07224283E-004
Al  6.25187302E-001  2.50018659E-001  1.25077474E-001
Al  4.97502125E-001  3.77170820E-001  1.26536766E-001
Al  5.00008680E-001  2.50019993E-001  2.52390826E-001
Al  6.27392495E-001  3.77457718E-001  2.47508807E-001
Al  6.25668065E-001  2.49991194E-001  3.77491103E-001
Al  4.97598391E-001  3.75271051E-001  3.75418117E-001
Al  4.99775842E-001  2.47708471E-001  4.99920385E-001
Al  6.24750152E-001  3.77324073E-001  4.99723606E-001
Al  6.26860451E-001  2.50269338E-001  6.24254327E-001
Al  5.00020177E-001  3.74952233E-001  6.23749186E-001
Al  4.99958188E-001  2.49899144E-001  7.47511719E-001
Al  6.25019001E-001  3.72833729E-001  7.52227513E-001
Al  6.27083649E-001  2.50100507E-001  8.75071297E-001
Al  5.00234578E-001  3.73181468E-001  8.73168180E-001
Al  5.00412606E-001  5.00058073E-001  6.37856139E-004
Al  6.25805243E-001  6.25038117E-001  1.24743921E-004
Al  6.24899717E-001  5.00055368E-001  1.26771572E-001
Al  5.00119030E-001  6.26035703E-001  1.24093267E-001
Al  4.99810717E-001  5.00108226E-001  2.52480793E-001
Al  6.25845283E-001  6.24981613E-001  2.51314509E-001
Al  6.25273965E-001  5.00090233E-001  3.75032849E-001
Al  5.01627944E-001  6.24916580E-001  3.72928888E-001
Al  5.00042598E-001  4.99036056E-001  4.97740353E-001
Al  6.24991595E-001  6.24562490E-001  5.02009487E-001
Al  6.26813033E-001  4.97547387E-001  6.24991603E-001
Al  4.99223684E-001  6.23320150E-001  6.25235810E-001
Al  4.99545569E-001  4.98342890E-001  7.51766190E-001
Al  6.25108256E-001  6.24413380E-001  7.49620298E-001
Al  6.23838482E-001  5.01895600E-001  8.72527167E-001
Al  5.02442128E-001  6.24854856E-001  8.75221240E-001
Al  4.99878515E-001  7.51115842E-001  1.01256722E-003
Al  6.24427394E-001  8.76928551E-001  -8.81716229E-006
Al  6.25612869E-001  7.49980560E-001  1.27033666E-001
Al  4.99889671E-001  8.74256543E-001  1.25652237E-001
Al  5.00272766E-001  7.47520004E-001  2.50026933E-001
Al  6.25036586E-001  8.75234897E-001  2.50919713E-001
Al  6.25334493E-001  7.50075599E-001  3.74919249E-001
Al  5.00018122E-001  8.74828665E-001  3.72643171E-001
Al  5.01235653E-001  7.50150688E-001  4.98077531E-001
Al  6.25284118E-001  8.72920244E-001  4.99965361E-001
Al  6.23574710E-001  7.51908251E-001  6.25707743E-001
Al  4.99502364E-001  8.74990333E-001  6.25009815E-001
Al  4.99722068E-001  7.49765534E-001  7.49742270E-001
Al  6.23913267E-001  8.74616736E-001  7.52494794E-001
Al  6.22681740E-001  7.48480237E-001  8.75195429E-001
Al  4.97518473E-001  8.75060930E-001  8.74991494E-001
Al  7.51973556E-001  8.82499345E-006  1.88736637E-003
Al  8.76748854E-001  1.22581276E-001  2.45845440E-003
Al  8.77105775E-001  2.45306456E-003  1.22611581E-001
Al  7.50026670E-001  1.27304203E-001  1.26507453E-001
Al  7.50022284E-001  2.26028859E-003  2.49897593E-001
Al  8.73604422E-001  1.25036365E-001  2.50904681E-001
Al  8.75031110E-001  1.81147046E-005  3.75008620E-001
Al  7.51483642E-001  1.26839575E-001  3.76321671E-001
Al  7.50699993E-001  -1.00259909E-003  4.99947433E-001
Al  8.76271729E-001  1.24642050E-001  5.01398742E-001
Al  8.72500594E-001  6.55729217E-004  6.24023777E-001
Al  7.50752951E-001  1.25114273E-001  6.25433667E-001
Al  7.49087293E-001  -6.93952946E-004  7.49709806E-001
Al  8.76965941E-001  1.22586264E-001  7.51079389E-001
Al  8.75069557E-001  4.42063009E-004  8.74915442E-001
Al  7.52012196E-001  1.25541580E-001  8.75122474E-001
Al  7.50678529E-001  2.49247970E-001  -1.82855618E-004
Al  8.72536578E-001  3.74144484E-001  -2.49146441E-003
Al  8.74910576E-001  2.49517324E-001  1.26846595E-001
Al  7.50138555E-001  3.74041279E-001  1.24767870E-001
Al  7.52147212E-001  2.48047746E-001  2.50019571E-001
Al  8.73081792E-001  3.73385149E-001  2.51299175E-001
Al  8.75019313E-001  2.49796612E-001  3.74787771E-001
Al  7.47992784E-001  3.74981754E-001  3.72515961E-001
Al  7.50040380E-001  2.50017082E-001  4.99881094E-001
Al  8.76875885E-001  3.75956237E-001  4.97855491E-001
Al  8.75018631E-001  2.50067049E-001  6.27491825E-001
Al  7.50045211E-001  3.76412966E-001  6.25008426E-001
Al  7.50967811E-001  2.48695990E-001  7.52330383E-001
Al  8.74981795E-001  3.74963180E-001  7.50737031E-001
Al  8.75105059E-001  2.50614002E-001  8.75901715E-001
Al  7.50249109E-001  3.74883344E-001  8.75509548E-001
Al  7.49355202E-001  5.02489884E-001  1.10348189E-003
Al  8.77171496E-001  6.24888209E-001  -1.73986692E-003
Al  8.77250680E-001  5.00973916E-001  1.25791590E-001
Al  7.50292074E-001  6.25008581E-001  1.27419302E-001
Al  7.49990715E-001  5.00220410E-001  2.50075255E-001
Al  8.77455288E-001  6.25020148E-001  2.50751467E-001
Al  8.73971357E-001  4.98701339E-001  3.76241477E-001
Al  7.52226871E-001  6.26176477E-001  3.74201087E-001
Al  7.49981884E-001  5.00032601E-001  4.99156165E-001
Al  8.75874550E-001  6.25068715E-001  4.99906876E-001
Al  8.74981655E-001  4.97526416E-001  6.27300774E-001
Al  7.52009518E-001  6.24979798E-001  6.25500991E-001
Al  7.49786172E-001  5.00008484E-001  7.50038694E-001
Al  8.75018969E-001  6.22930387E-001  7.50009015E-001
Al  8.77451052E-001  5.01065435E-001  8.76205615E-001
Al  7.50093686E-001  6.24981877E-001  8.75176254E-001
Al  7.50053692E-001  7.52234374E-001  -1.99449955E-003
Al  8.75042050E-001  8.74991135E-001  1.58074234E-003
Al  8.74019438E-001  7.49759647E-001  1.23549160E-001
Al  7.52414292E-001  8.74760194E-001  1.24769654E-001
Al  7.47614416E-001  7.52097060E-001  2.51057856E-001
Al  8.75854247E-001  8.75291658E-001  2.47866394E-001
Al  8.74089778E-001  7.47903512E-001  3.75479115E-001
Al  7.50408973E-001  8.77235663E-001  3.75516878E-001
Al  7.50114050E-001  7.51885981E-001  5.00175867E-001
Al  8.72836931E-001  8.74785040E-001  4.99893646E-001
Al  8.73165541E-001  7.51594844E-001  6.25383336E-001
Al  7.51710326E-001  8.74747245E-001  6.26019040E-001
Al  7.47914411E-001  7.49416448E-001  7.47501504E-001
Al  8.72747980E-001  8.75320030E-001  7.51275859E-001
Al  8.73233705E-001  7.50103063E-001  8.75775382E-001
Al  7.49673449E-001  8.76689994E-001  8.75019181E-001
K_POINTS automatic
2 2 2 1 1 1
