&CONTROL
restart_mode = 'from_scratch',
calculation = 'scf',
outdir = '/gpfs/bb/bxp912/scratch',
pseudo_dir = '/gpfs/bb/bxp912/pseudopotentials',
prefix = '1.44000000E-001',
etot_conv_thr = 1.00000000E-007,
forc_conv_thr = 1.00000000E-007,
nstep = 200,
tprnfor = .true.,
tstress = .true.,
disk_io = 'low',
/
&SYSTEM
ibrav = 14,
celldm(1) = 8.07000000E+000,
celldm(2) = 1.00000000E+000,
celldm(3) = 1.00000000E+000,
celldm(4) = 0.00000000E+000,
celldm(5) = 0.00000000E+000,
celldm(6) = 0.00000000E+000,
nat = 32,
ntyp = 1,
ecutwfc = 35,
ecutrho = 208,
occupations = 'smearing',
smearing = 'mv',
degauss = 5.00000007E-002,
/
&ELECTRONS
diagonalization = 'david',
mixing_mode = plain,
mixing_beta = 6.99999988E-001,
conv_thr = 1.00000000E-007,
/
&IONS
ion_dynamics = 'bfgs',
/
&CELL
cell_dynamics = 'bfgs',
press = 0.00000000E+000,
cell_factor = 2.00000000E+000,
/
ATOMIC_SPECIES
Al  2.69815390E+001  Al.pbe-n-kjpaw_psl.0.1.UPF
ATOMIC_POSITIONS crystal
Al  -1.96646707E-004  -2.88161908E-003  3.17339725E-004
Al  2.45790521E-001  2.51245861E-001  -3.48817311E-005
Al  2.53175898E-001  1.90812880E-003  2.52490576E-001
Al  1.15462252E-003  2.54999741E-001  2.48879823E-001
Al  3.06828980E-003  1.68250928E-005  5.01279866E-001
Al  2.49653031E-001  2.50038306E-001  4.98935386E-001
Al  2.47273132E-001  -2.20813906E-003  7.53739250E-001
Al  4.79974823E-005  2.49423370E-001  7.45749804E-001
Al  2.18971374E-003  4.95646644E-001  4.56928444E-003
Al  2.52484923E-001  7.50035484E-001  2.47525062E-004
Al  2.45518049E-001  4.95318459E-001  2.45679126E-001
Al  4.33546952E-003  7.54448668E-001  2.48369907E-001
Al  -4.45319636E-003  5.00063066E-001  5.00382693E-001
Al  2.51213056E-001  7.47938224E-001  5.00618041E-001
Al  2.50351681E-001  5.02677730E-001  7.50150210E-001
Al  3.90145088E-003  7.53516629E-001  7.51302285E-001
Al  4.99983233E-001  -3.60051821E-003  1.44610942E-003
Al  7.45812026E-001  2.45399172E-001  -5.31879078E-004
Al  7.49777028E-001  -9.55960230E-005  2.49962466E-001
Al  4.99638631E-001  2.54655455E-001  2.49983231E-001
Al  4.97182400E-001  7.36532275E-005  5.00169390E-001
Al  7.45211740E-001  2.50016753E-001  5.04366388E-001
Al  7.49528886E-001  1.68404671E-005  7.51885824E-001
Al  5.00213021E-001  2.50018773E-001  7.51294101E-001
Al  5.00437927E-001  5.00050086E-001  4.95994651E-003
Al  7.50050269E-001  7.45983693E-001  -3.77338605E-005
Al  7.50239121E-001  4.95150306E-001  2.49027297E-001
Al  4.99954185E-001  7.50765100E-001  2.49924800E-001
Al  5.00016741E-001  5.00336266E-001  5.00328925E-001
Al  7.49834671E-001  7.49567578E-001  5.04766639E-001
Al  7.49893219E-001  4.97606132E-001  7.51530604E-001
Al  5.00084338E-001  7.54682806E-001  7.50067805E-001
K_POINTS automatic
2 2 2 1 1 1
