&CONTROL
restart_mode = 'from_scratch',
calculation = 'scf',
outdir = '/gpfs/bb/bxp912/scratch',
pseudo_dir = '/gpfs/bb/bxp912/pseudopotentials',
prefix = '1.44000000E-001',
etot_conv_thr = 1.00000000E-007,
forc_conv_thr = 1.00000000E-007,
nstep = 200,
tprnfor = .true.,
tstress = .true.,
disk_io = 'low',
/
&SYSTEM
ibrav = 14,
celldm(1) = 8.07000000E+000,
celldm(2) = 1.00000000E+000,
celldm(3) = 1.00000000E+000,
celldm(4) = 0.00000000E+000,
celldm(5) = 0.00000000E+000,
celldm(6) = 0.00000000E+000,
nat = 32,
ntyp = 1,
ecutwfc = 35,
ecutrho = 208,
occupations = 'smearing',
smearing = 'mv',
degauss = 5.00000007E-002,
/
&ELECTRONS
diagonalization = 'david',
mixing_mode = plain,
mixing_beta = 6.99999988E-001,
conv_thr = 1.00000000E-007,
/
&IONS
ion_dynamics = 'bfgs',
/
&CELL
cell_dynamics = 'bfgs',
press = 0.00000000E+000,
cell_factor = 2.00000000E+000,
/
ATOMIC_SPECIES
Al  2.69815390E+001  Al.pbe-n-kjpaw_psl.0.1.UPF
ATOMIC_POSITIONS crystal
Al  3.94053174E-003  6.89023482E-004  1.08254308E-003
Al  2.54277917E-001  2.49437516E-001  -3.68905230E-005
Al  2.50179739E-001  -4.44832807E-003  2.47776468E-001
Al  -1.71440163E-005  2.50038038E-001  2.45680351E-001
Al  -8.01187427E-004  -9.31672787E-005  4.99446964E-001
Al  2.50035095E-001  2.50091227E-001  5.00035301E-001
Al  2.50651717E-001  1.16279755E-003  7.46222285E-001
Al  -1.49379711E-004  2.48734851E-001  7.50254280E-001
Al  -4.43781172E-005  4.99963031E-001  -3.92983285E-005
Al  2.46349051E-001  7.54996425E-001  1.89598321E-005
Al  2.54014354E-001  4.99392306E-001  2.49821517E-001
Al  -3.40602810E-003  7.46784382E-001  2.52826557E-001
Al  4.78339608E-003  5.00047105E-001  4.95466583E-001
Al  2.50315880E-001  7.49860299E-001  5.00824995E-001
Al  2.49504250E-001  4.99281665E-001  7.48964671E-001
Al  4.77926483E-003  7.48391872E-001  7.51328085E-001
Al  4.96931581E-001  -7.84732994E-004  3.24335641E-004
Al  7.50037783E-001  2.45830919E-001  4.67621104E-003
Al  7.45062642E-001  -3.76912651E-005  2.49782826E-001
Al  5.03040625E-001  2.49327003E-001  2.45043271E-001
Al  4.99932007E-001  3.21991139E-003  5.02513077E-001
Al  7.51210074E-001  2.47857933E-001  4.99592677E-001
Al  7.50364055E-001  -4.98240656E-003  7.50834175E-001
Al  4.95301447E-001  2.49890189E-001  7.54987864E-001
Al  5.00163353E-001  4.98749582E-001  2.66370341E-003
Al  7.49027376E-001  7.50017912E-001  4.22675318E-003
Al  7.49438110E-001  5.00220353E-001  2.48931611E-001
Al  5.04999692E-001  7.49798238E-001  2.53010060E-001
Al  5.04919215E-001  4.99078700E-001  4.95440900E-001
Al  7.54125901E-001  7.49654784E-001  5.00398620E-001
Al  7.45285957E-001  5.01201251E-001  7.49597049E-001
Al  4.95033299E-001  7.52101519E-001  7.52943456E-001
K_POINTS automatic
2 2 2 1 1 1
