&CONTROL
restart_mode = 'from_scratch',
calculation = 'scf',
outdir = '/gpfs/bb/bxp912/scratch',
pseudo_dir = '/gpfs/bb/bxp912/pseudopotentials',
prefix = '3.00000000E-001',
etot_conv_thr = 1.00000000E-007,
forc_conv_thr = 1.00000000E-007,
nstep = 200,
tprnfor = .true.,
tstress = .true.,
disk_io = 'low',
/
&SYSTEM
ibrav = 14,
celldm(1) = 3.05001797E+001,
celldm(2) = 1.00000000E+000,
celldm(3) = 1.00000000E+000,
celldm(4) = 0.00000000E+000,
celldm(5) = 0.00000000E+000,
celldm(6) = 0.00000000E+000,
nat = 256,
ntyp = 1,
ecutwfc = 35,
ecutrho = 208,
occupations = 'smearing',
smearing = 'mv',
degauss = 5.00000007E-002,
/
&ELECTRONS
diagonalization = 'david',
mixing_mode = plain,
mixing_beta = 6.99999988E-001,
conv_thr = 1.00000000E-007,
/
&IONS
ion_dynamics = 'bfgs',
/
&CELL
cell_dynamics = 'bfgs',
press = 0.00000000E+000,
cell_factor = 2.00000000E+000,
/
ATOMIC_SPECIES
Al  2.69815390E+001  Al.pbe-n-kjpaw_psl.0.1.UPF
ATOMIC_POSITIONS crystal
Al  -3.74895945E-005  1.07172238E-003  -5.15458434E-005
Al  1.24991560E-001  1.24119704E-001  -1.60883813E-003
Al  1.24798344E-001  -2.48942710E-003  1.24973596E-001
Al  -4.73048069E-005  1.24588780E-001  1.27404937E-001
Al  1.97088033E-005  -1.33393755E-004  2.47708033E-001
Al  1.27462387E-001  1.24741038E-001  2.49751257E-001
Al  1.23268339E-001  1.44270937E-003  3.72501709E-001
Al  2.20948209E-003  1.26961262E-001  3.73102645E-001
Al  3.51089384E-004  3.59732141E-004  5.00172497E-001
Al  1.26065469E-001  1.26428767E-001  5.00210384E-001
Al  1.27118951E-001  1.06418493E-003  6.24374555E-001
Al  -4.60159920E-004  1.22762182E-001  6.24682103E-001
Al  1.89733823E-005  -2.66209995E-004  7.50008377E-001
Al  1.24016351E-001  1.24794566E-001  7.52496286E-001
Al  1.25018184E-001  3.73818128E-004  8.77443059E-001
Al  2.06859643E-004  1.24304806E-001  8.72541618E-001
Al  5.86108175E-005  2.49409249E-001  9.01370260E-006
Al  1.25138588E-001  3.76781117E-001  -5.57662144E-004
Al  1.24864065E-001  2.50165470E-001  1.27438881E-001
Al  -4.34100689E-004  3.75008704E-001  1.24880048E-001
Al  -1.82015006E-003  2.50345149E-001  2.50184299E-001
Al  1.25541918E-001  3.74118629E-001  2.49862202E-001
Al  1.24860358E-001  2.49871838E-001  3.76821106E-001
Al  8.37413271E-006  3.72595236E-001  3.73177817E-001
Al  -2.59107339E-004  2.49688938E-001  4.97956770E-001
Al  1.24975442E-001  3.73931329E-001  5.00228953E-001
Al  1.24698801E-001  2.49981883E-001  6.24953362E-001
Al  9.03212217E-004  3.72806112E-001  6.24982572E-001
Al  -5.97117895E-004  2.47719780E-001  7.50209016E-001
Al  1.24848627E-001  3.75018435E-001  7.48092659E-001
Al  1.24839288E-001  2.48817343E-001  8.77465960E-001
Al  1.54924747E-003  3.74980311E-001  8.74965540E-001
Al  6.02884941E-005  4.99980752E-001  -2.20115845E-003
Al  1.24544613E-001  6.22959988E-001  3.87434530E-004
Al  1.25755792E-001  4.99704440E-001  1.24907889E-001
Al  8.10876407E-004  6.24225567E-001  1.25211049E-001
Al  -1.82330268E-005  5.02028820E-001  2.50316068E-001
Al  1.25008847E-001  6.25180116E-001  2.50018210E-001
Al  1.24772899E-001  4.99042099E-001  3.75008374E-001
Al  -1.34896816E-004  6.23837583E-001  3.75168319E-001
Al  1.91387972E-004  5.00074512E-001  5.00138738E-001
Al  1.24975116E-001  6.25754269E-001  4.99565999E-001
Al  1.25008524E-001  5.00441270E-001  6.25018368E-001
Al  8.37725478E-006  6.24837691E-001  6.25291385E-001
Al  -2.28747893E-003  5.00347692E-001  7.50347939E-001
Al  1.24757714E-001  6.24948145E-001  7.49982526E-001
Al  1.27388689E-001  5.00122321E-001  8.73643123E-001
Al  -2.92676087E-004  6.25017772E-001  8.75394568E-001
Al  -1.19005284E-004  7.49517079E-001  5.38992387E-004
Al  1.22976490E-001  8.77334565E-001  2.37271987E-003
Al  1.26797141E-001  7.48730695E-001  1.24991413E-001
Al  -8.52486208E-004  8.77209667E-001  1.22504841E-001
Al  -2.10051127E-003  7.52000555E-001  2.49543274E-001
Al  1.25048556E-001  8.74204759E-001  2.48318962E-001
Al  1.26905516E-001  7.50753809E-001  3.75239436E-001
Al  -8.99575338E-004  8.73833744E-001  3.75057058E-001
Al  -2.06375954E-005  7.50033721E-001  5.00101153E-001
Al  1.22718525E-001  8.75518152E-001  5.02336097E-001
Al  1.27446083E-001  7.50548720E-001  6.25065999E-001
Al  6.75873451E-004  8.75229201E-001  6.23159260E-001
Al  -2.49361206E-003  7.49144542E-001  7.49990474E-001
Al  1.24933331E-001  8.73475281E-001  7.48812496E-001
Al  1.25017777E-001  7.50087925E-001  8.77499142E-001
Al  -1.06380801E-003  8.72675816E-001  8.73070489E-001
Al  2.50104499E-001  -1.85857176E-003  -1.13062630E-003
Al  3.74031812E-001  1.24981810E-001  2.40477254E-003
Al  3.74914786E-001  5.85577173E-004  1.22779708E-001
Al  2.47948665E-001  1.24971422E-001  1.24965185E-001
Al  2.51470494E-001  8.92871397E-005  2.49164225E-001
Al  3.73549450E-001  1.23810447E-001  2.49721890E-001
Al  3.76922064E-001  -6.41142564E-004  3.77499640E-001
Al  2.51559611E-001  1.22838428E-001  3.75018834E-001
Al  2.52303916E-001  2.28693175E-003  5.00110719E-001
Al  3.73503957E-001  1.27351343E-001  4.97540869E-001
Al  3.74758007E-001  -5.85560879E-004  6.25167741E-001
Al  2.48208945E-001  1.24991404E-001  6.24861051E-001
Al  2.50465054E-001  -4.40421651E-004  7.50726718E-001
Al  3.75268794E-001  1.22893665E-001  7.50065912E-001
Al  3.77218100E-001  2.23801827E-003  8.77497705E-001
Al  2.48125455E-001  1.22977097E-001  8.73619507E-001
Al  2.49066804E-001  2.49950052E-001  1.42863433E-003
Al  3.75008506E-001  3.75577387E-001  2.18599721E-003
Al  3.77283836E-001  2.50041833E-001  1.25717320E-001
Al  2.49240997E-001  3.74512531E-001  1.24981891E-001
Al  2.49421223E-001  2.48822440E-001  2.49980398E-001
Al  3.75018300E-001  3.75045272E-001  2.48394113E-001
Al  3.74474851E-001  2.49245993E-001  3.73952597E-001
Al  2.48618511E-001  3.77128062E-001  3.77495057E-001
Al  2.52498644E-001  2.49480985E-001  5.01611070E-001
Al  3.75183477E-001  3.75021784E-001  4.98671329E-001
Al  3.72704899E-001  2.47597732E-001  6.22796492E-001
Al  2.51925208E-001  3.76077290E-001  6.27168109E-001
Al  2.49745862E-001  2.49896424E-001  7.48602158E-001
Al  3.77236046E-001  3.74893171E-001  7.49057129E-001
Al  3.75534802E-001  2.50273628E-001  8.77297457E-001
Al  2.47742612E-001  3.74937025E-001  8.76397929E-001
Al  2.52321256E-001  5.00340307E-001  -2.13457418E-003
Al  3.76377621E-001  6.22695593E-001  -1.67460170E-003
Al  3.72612398E-001  4.99634285E-001  1.22892618E-001
Al  2.50558381E-001  6.24870170E-001  1.25035233E-001
Al  2.50093181E-001  4.98799659E-001  2.48129591E-001
Al  3.75017612E-001  6.25061388E-001  2.50497855E-001
Al  3.75201009E-001  4.98328989E-001  3.77480737E-001
Al  2.51685142E-001  6.27307991E-001  3.74178375E-001
Al  2.49432172E-001  5.00230154E-001  4.98198102E-001
Al  3.74603035E-001  6.24982298E-001  4.99555262E-001
Al  3.73755223E-001  4.99525621E-001  6.25019341E-001
Al  2.47911333E-001  6.22982692E-001  6.25551474E-001
Al  2.49792327E-001  4.99935973E-001  7.49929528E-001
Al  3.76313812E-001  6.24698983E-001  7.49865473E-001
Al  3.77024916E-001  5.00018653E-001  8.74856933E-001
Al  2.48805451E-001  6.25032359E-001  8.76417814E-001
Al  2.50173854E-001  7.52473313E-001  -4.65274352E-004
Al  3.74689494E-001  8.75141647E-001  -2.21783625E-003
Al  3.75028794E-001  7.49990932E-001  1.24212826E-001
Al  2.50104660E-001  8.76607355E-001  1.24508088E-001
Al  2.51617790E-001  7.49918199E-001  2.51827152E-001
Al  3.74951036E-001  8.72680057E-001  2.48759314E-001
Al  3.77328579E-001  7.49976521E-001  3.72512054E-001
Al  2.48148695E-001  8.73381766E-001  3.77489373E-001
Al  2.52125639E-001  7.52478072E-001  5.02416096E-001
Al  3.72768329E-001  8.76516467E-001  5.00023558E-001
Al  3.72942442E-001  7.50414118E-001  6.24909362E-001
Al  2.50187711E-001  8.74971226E-001  6.25009017E-001
Al  2.51482860E-001  7.49755652E-001  7.49981001E-001
Al  3.74971831E-001  8.72791929E-001  7.52494535E-001
Al  3.74903419E-001  7.51732281E-001  8.74038646E-001
Al  2.50287957E-001  8.73582521E-001  8.73764595E-001
Al  5.00669467E-001  2.26402964E-003  5.97642401E-004
Al  6.23974856E-001  1.26328689E-001  -8.37592786E-006
Al  6.27223862E-001  6.10980380E-004  1.24165206E-001
Al  4.99406868E-001  1.26682624E-001  1.24416922E-001
Al  5.01486794E-001  2.41327017E-003  2.50622781E-001
Al  6.24806979E-001  1.25571585E-001  2.50489710E-001
Al  6.25147896E-001  1.14652493E-004  3.75034310E-001
Al  5.01764815E-001  1.24991627E-001  3.75225992E-001
Al  4.98646979E-001  -8.39695477E-006  5.00024062E-001
Al  6.25019100E-001  1.22566490E-001  4.99011180E-001
Al  6.24870491E-001  1.02213535E-004  6.22566089E-001
Al  5.01976269E-001  1.26416865E-001  6.24571124E-001
Al  5.00393978E-001  1.19826790E-004  7.49981590E-001
Al  6.25033793E-001  1.23329001E-001  7.47536838E-001
Al  6.24964558E-001  9.07427947E-006  8.74981713E-001
Al  4.97980693E-001  1.23762013E-001  8.77499926E-001
Al  4.99991151E-001  2.49888274E-001  3.65543762E-004
Al  6.22589670E-001  3.75021396E-001  8.68647196E-006
Al  6.25151534E-001  2.48380600E-001  1.23627662E-001
Al  4.99386418E-001  3.74976815E-001  1.22507394E-001
Al  5.00318413E-001  2.50008385E-001  2.48957703E-001
Al  6.25827824E-001  3.75718449E-001  2.49981371E-001
Al  6.25359134E-001  2.48620808E-001  3.72504877E-001
Al  5.00763985E-001  3.73369636E-001  3.75037059E-001
Al  4.97503437E-001  2.51409287E-001  4.99991546E-001
Al  6.24981812E-001  3.75479022E-001  4.99912505E-001
Al  6.25018745E-001  2.47808281E-001  6.25997455E-001
Al  5.02014035E-001  3.74811793E-001  6.23760152E-001
Al  5.00060473E-001  2.49979706E-001  7.50063783E-001
Al  6.26132765E-001  3.77273881E-001  7.51285844E-001
Al  6.22614253E-001  2.47696267E-001  8.76352582E-001
Al  5.00353924E-001  3.75529520E-001  8.75735735E-001
Al  4.99530306E-001  4.98931357E-001  2.30251568E-003
Al  6.25018757E-001  6.25018423E-001  -9.63370819E-006
Al  6.22934005E-001  5.02463013E-001  1.26072995E-001
Al  5.01768471E-001  6.25020044E-001  1.27394408E-001
Al  4.99250366E-001  5.01685204E-001  2.49850665E-001
Al  6.27396826E-001  6.26736114E-001  2.50018807E-001
Al  6.25058873E-001  4.97703117E-001  3.72626995E-001
Al  5.00388616E-001  6.26735518E-001  3.73078385E-001
Al  5.00345395E-001  4.99260830E-001  5.02463958E-001
Al  6.23471469E-001  6.25518605E-001  5.00386626E-001
Al  6.24940510E-001  4.99974641E-001  6.26448670E-001
Al  4.98183337E-001  6.22512175E-001  6.24636863E-001
Al  4.99949234E-001  4.99191458E-001  7.50071557E-001
Al  6.26729416E-001  6.23947162E-001  7.49349654E-001
Al  6.22716419E-001  5.00068926E-001  8.74555429E-001
Al  5.02194091E-001  6.23286400E-001  8.73760978E-001
Al  4.97956206E-001  7.51842850E-001  -1.98294928E-005
Al  6.23962301E-001  8.74172773E-001  -2.12354346E-003
Al  6.24799530E-001  7.52443865E-001  1.24695129E-001
Al  4.98388512E-001  8.75008374E-001  1.24247071E-001
Al  5.02497418E-001  7.47987773E-001  2.50547810E-001
Al  6.25401484E-001  8.74951619E-001  2.50148309E-001
Al  6.27360014E-001  7.50259090E-001  3.72641622E-001
Al  4.99261681E-001  8.77499968E-001  3.73842966E-001
Al  4.99399296E-001  7.50008518E-001  4.99960136E-001
Al  6.26651996E-001  8.72688662E-001  4.97699663E-001
Al  6.23341619E-001  7.47501235E-001  6.25176986E-001
Al  4.99841336E-001  8.75875623E-001  6.24981237E-001
Al  4.99491264E-001  7.49833826E-001  7.51426713E-001
Al  6.23197222E-001  8.77361991E-001  7.49669876E-001
Al  6.26175090E-001  7.49991560E-001  8.74044820E-001
Al  5.01048305E-001  8.76131161E-001  8.75283508E-001
Al  7.47559509E-001  -2.48205030E-003  -8.42393772E-006
Al  8.74508006E-001  1.23562741E-001  -3.27518211E-004
Al  8.74671137E-001  8.37027327E-006  1.24578778E-001
Al  7.47551103E-001  1.24981890E-001  1.26736856E-001
Al  7.48952785E-001  -1.82516440E-003  2.50793201E-001
Al  8.75526273E-001  1.25008378E-001  2.49752259E-001
Al  8.76076953E-001  1.68983801E-004  3.74667873E-001
Al  7.50653358E-001  1.27442964E-001  3.75256790E-001
Al  7.50028268E-001  3.35316692E-004  5.00039235E-001
Al  8.75170167E-001  1.24879524E-001  5.00212889E-001
Al  8.74428477E-001  2.42364268E-003  6.25068548E-001
Al  7.50028510E-001  1.23295908E-001  6.24875505E-001
Al  7.51561440E-001  1.91337695E-003  7.50325128E-001
Al  8.76378987E-001  1.23308093E-001  7.49981884E-001
Al  8.73797964E-001  1.07793320E-004  8.77322484E-001
Al  7.51874620E-001  1.24623651E-001  8.73499645E-001
Al  7.47871352E-001  2.52065778E-001  1.28868701E-003
Al  8.75029280E-001  3.72580232E-001  -9.91559540E-004
Al  8.74506228E-001  2.47867823E-001  1.24940840E-001
Al  7.49726080E-001  3.72547501E-001  1.24803783E-001
Al  7.51052305E-001  2.49859091E-001  2.50223195E-001
Al  8.75281479E-001  3.75271049E-001  2.50040542E-001
Al  8.77453261E-001  2.49746642E-001  3.73443049E-001
Al  7.49960927E-001  3.77496018E-001  3.75018464E-001
Al  7.50547516E-001  2.50335551E-001  5.00634652E-001
Al  8.76693911E-001  3.76791097E-001  5.01329693E-001
Al  8.74970671E-001  2.49958911E-001  6.26243340E-001
Al  7.50212579E-001  3.72552107E-001  6.27276386E-001
Al  7.50907288E-001  2.49915013E-001  7.52321490E-001
Al  8.75026113E-001  3.74210857E-001  7.50669790E-001
Al  8.75021446E-001  2.51273119E-001  8.74587529E-001
Al  7.51791320E-001  3.75018141E-001  8.73703685E-001
Al  7.49349733E-001  4.98676007E-001  2.43402207E-003
Al  8.75226625E-001  6.26795097E-001  -2.25650874E-003
Al  8.73640470E-001  5.02044104E-001  1.27409064E-001
Al  7.50034182E-001  6.27498779E-001  1.25042468E-001
Al  7.48101203E-001  5.02496905E-001  2.50028587E-001
Al  8.75018252E-001  6.24339650E-001  2.50698250E-001
Al  8.77308100E-001  5.00364559E-001  3.72544038E-001
Al  7.49979333E-001  6.25009240E-001  3.75008852E-001
Al  7.49218663E-001  5.00712037E-001  5.00089574E-001
Al  8.74991198E-001  6.22528903E-001  4.99981811E-001
Al  8.75101084E-001  5.00128237E-001  6.25124753E-001
Al  7.47605440E-001  6.27156826E-001  6.25264286E-001
Al  7.49770704E-001  5.00034674E-001  7.50028279E-001
Al  8.75566868E-001  6.24955001E-001  7.48499491E-001
Al  8.74981752E-001  5.01060442E-001  8.75024276E-001
Al  7.50533304E-001  6.25393006E-001  8.75190785E-001
Al  7.50009324E-001  7.47803194E-001  1.52378990E-003
Al  8.73786643E-001  8.75325644E-001  1.82874246E-003
Al  8.76646724E-001  7.47726538E-001  1.24061515E-001
Al  7.50063014E-001  8.75222605E-001  1.27497948E-001
Al  7.50095305E-001  7.50008480E-001  2.50407296E-001
Al  8.72659358E-001  8.77330369E-001  2.47510922E-001
Al  8.76029792E-001  7.50057172E-001  3.77481140E-001
Al  7.50008718E-001  8.72647102E-001  3.75028817E-001
Al  7.50216980E-001  7.50681545E-001  5.02357892E-001
Al  8.75062416E-001  8.74886479E-001  4.98507880E-001
Al  8.74238995E-001  7.47844386E-001  6.25018206E-001
Al  7.48657073E-001  8.74821838E-001  6.25018128E-001
Al  7.50276779E-001  7.51113263E-001  7.50018206E-001
Al  8.73037699E-001  8.75035876E-001  7.49981494E-001
Al  8.76139435E-001  7.51248290E-001  8.74978335E-001
Al  7.50274542E-001  8.74486990E-001  8.75017019E-001
K_POINTS automatic
2 2 2 1 1 1
