&CONTROL
restart_mode = 'from_scratch',
calculation = 'scf',
outdir = '/gpfs/bb/bxp912/scratch',
pseudo_dir = '/gpfs/bb/bxp912/pseudopotentials',
prefix = '3.00000000E-001',
etot_conv_thr = 1.00000000E-007,
forc_conv_thr = 1.00000000E-007,
nstep = 200,
tprnfor = .true.,
tstress = .true.,
disk_io = 'low',
/
&SYSTEM
ibrav = 14,
celldm(1) = 3.05001797E+001,
celldm(2) = 1.00000000E+000,
celldm(3) = 1.00000000E+000,
celldm(4) = 0.00000000E+000,
celldm(5) = 0.00000000E+000,
celldm(6) = 0.00000000E+000,
nat = 256,
ntyp = 1,
ecutwfc = 35,
ecutrho = 208,
occupations = 'smearing',
smearing = 'mv',
degauss = 5.00000007E-002,
/
&ELECTRONS
diagonalization = 'david',
mixing_mode = plain,
mixing_beta = 6.99999988E-001,
conv_thr = 1.00000000E-007,
/
&IONS
ion_dynamics = 'bfgs',
/
&CELL
cell_dynamics = 'bfgs',
press = 0.00000000E+000,
cell_factor = 2.00000000E+000,
/
ATOMIC_SPECIES
Al  2.69815390E+001  Al.pbe-n-kjpaw_psl.0.1.UPF
ATOMIC_POSITIONS crystal
Al  -4.69908995E-005  4.00065721E-004  8.30909341E-005
Al  1.24980376E-001  1.24856424E-001  -2.64874568E-004
Al  1.24962708E-001  2.04341631E-003  1.25018830E-001
Al  8.76568153E-004  1.25153854E-001  1.25349530E-001
Al  -1.78008158E-004  5.63977542E-005  2.52342795E-001
Al  1.24933277E-001  1.24991577E-001  2.49981718E-001
Al  1.25338222E-001  1.66432845E-003  3.77424747E-001
Al  -5.38114371E-004  1.25237201E-001  3.76676471E-001
Al  1.99743287E-003  2.35491486E-003  4.98989612E-001
Al  1.26700012E-001  1.24968714E-001  4.99442087E-001
Al  1.23436866E-001  -6.09059722E-004  6.27100306E-001
Al  2.23685803E-003  1.25276970E-001  6.22870883E-001
Al  -8.40123327E-006  2.62880196E-004  7.49771546E-001
Al  1.27083393E-001  1.24944157E-001  7.51355536E-001
Al  1.23825048E-001  -7.00312517E-004  8.75018599E-001
Al  9.13894765E-005  1.23762054E-001  8.74991244E-001
Al  8.50348678E-006  2.49981039E-001  -1.36422265E-004
Al  1.24976200E-001  3.75030340E-001  4.36459729E-004
Al  1.23425405E-001  2.50293696E-001  1.24981583E-001
Al  -8.20047500E-005  3.75008426E-001  1.24002891E-001
Al  1.11023350E-003  2.49950636E-001  2.52226749E-001
Al  1.26065482E-001  3.74883468E-001  2.49981525E-001
Al  1.25009374E-001  2.49799855E-001  3.73405563E-001
Al  -4.60293545E-004  3.74961542E-001  3.75170448E-001
Al  8.60377080E-005  2.49160267E-001  5.02481451E-001
Al  1.27201714E-001  3.75250265E-001  5.00094308E-001
Al  1.24616032E-001  2.52462694E-001  6.27477267E-001
Al  -1.19359985E-003  3.74981497E-001  6.22614216E-001
Al  -2.53179649E-004  2.48988570E-001  7.47506225E-001
Al  1.22902575E-001  3.76934985E-001  7.48218566E-001
Al  1.24855979E-001  2.47610493E-001  8.74955201E-001
Al  -1.34167161E-003  3.75009700E-001  8.73231197E-001
Al  2.31298740E-003  4.99847595E-001  -9.93589364E-004
Al  1.24654725E-001  6.23196183E-001  2.51047863E-004
Al  1.25076605E-001  4.99981143E-001  1.27364368E-001
Al  7.87350083E-004  6.23369744E-001  1.25971130E-001
Al  -1.83451822E-005  4.97503687E-001  2.50018230E-001
Al  1.25182402E-001  6.25144527E-001  2.49965559E-001
Al  1.23170286E-001  4.99922640E-001  3.73546279E-001
Al  1.46520810E-004  6.24960794E-001  3.77412975E-001
Al  7.87704130E-004  4.99972991E-001  5.00018485E-001
Al  1.24951868E-001  6.27074124E-001  4.99392233E-001
Al  1.24854387E-001  4.99449144E-001  6.24991606E-001
Al  -2.55833049E-004  6.25165061E-001  6.25440686E-001
Al  -1.88534389E-003  4.99981312E-001  7.48019863E-001
Al  1.23465747E-001  6.22689537E-001  7.47739125E-001
Al  1.25018241E-001  5.01342462E-001  8.74982882E-001
Al  2.30783189E-003  6.24501769E-001  8.74837667E-001
Al  -1.63912971E-003  7.49962984E-001  -2.48358437E-003
Al  1.25380789E-001  8.74687699E-001  3.98351544E-005
Al  1.22502298E-001  7.49616540E-001  1.26907941E-001
Al  4.18683882E-004  8.75075644E-001  1.25008374E-001
Al  1.28813727E-004  7.51874044E-001  2.49915628E-001
Al  1.25261426E-001  8.74891915E-001  2.51431524E-001
Al  1.27414891E-001  7.49823456E-001  3.74728987E-001
Al  -2.49395006E-003  8.75304372E-001  3.75225348E-001
Al  1.02581441E-004  7.49939444E-001  5.00153192E-001
Al  1.24438227E-001  8.77369407E-001  5.00025536E-001
Al  1.26960636E-001  7.49981532E-001  6.25018489E-001
Al  -7.61268677E-004  8.74932289E-001  6.24928452E-001
Al  2.49744190E-003  7.48777707E-001  7.47608028E-001
Al  1.24981730E-001  8.75038288E-001  7.51515524E-001
Al  1.25071235E-001  7.51910346E-001  8.74964517E-001
Al  1.86364983E-005  8.74533432E-001  8.75226762E-001
Al  2.50666397E-001  1.36535593E-003  -9.76207325E-004
Al  3.74975580E-001  1.25029287E-001  -2.10449212E-003
Al  3.74991522E-001  -1.11166504E-004  1.24971505E-001
Al  2.49427880E-001  1.25018610E-001  1.24716125E-001
Al  2.49015115E-001  1.30025178E-004  2.50018156E-001
Al  3.75018604E-001  1.25925837E-001  2.49704433E-001
Al  3.75063854E-001  -7.36953572E-004  3.73127866E-001
Al  2.50405402E-001  1.26928938E-001  3.76340832E-001
Al  2.47907144E-001  1.24649956E-003  5.02497663E-001
Al  3.73208687E-001  1.25780304E-001  5.00059819E-001
Al  3.74981893E-001  2.42510171E-003  6.26044204E-001
Al  2.52486359E-001  1.22500027E-001  6.25098569E-001
Al  2.51159498E-001  -7.40158257E-005  7.50028202E-001
Al  3.72705046E-001  1.27338832E-001  7.49910204E-001
Al  3.77299083E-001  1.21907235E-004  8.72974110E-001
Al  2.50645080E-001  1.24088968E-001  8.74981676E-001
Al  2.47501520E-001  2.49978171E-001  -6.58127901E-005
Al  3.75563787E-001  3.77418906E-001  1.50237504E-003
Al  3.76429313E-001  2.47654322E-001  1.23137939E-001
Al  2.50019879E-001  3.75020203E-001  1.22578833E-001
Al  2.51656579E-001  2.50602598E-001  2.50193142E-001
Al  3.72638404E-001  3.77435894E-001  2.52496390E-001
Al  3.73481930E-001  2.50886377E-001  3.74922705E-001
Al  2.49991161E-001  3.74981874E-001  3.74420066E-001
Al  2.50066001E-001  2.52453865E-001  5.00018552E-001
Al  3.77109535E-001  3.74534093E-001  4.99856127E-001
Al  3.75199938E-001  2.49954606E-001  6.25798485E-001
Al  2.50018403E-001  3.74970996E-001  6.23171291E-001
Al  2.52497303E-001  2.50326217E-001  7.50296908E-001
Al  3.72687713E-001  3.74973805E-001  7.50055667E-001
Al  3.75691029E-001  2.49973158E-001  8.75272204E-001
Al  2.51734897E-001  3.74802319E-001  8.74991622E-001
Al  2.49912519E-001  4.97558804E-001  1.87854210E-003
Al  3.73162338E-001  6.24778355E-001  2.44751954E-003
Al  3.74826370E-001  5.00201425E-001  1.24508311E-001
Al  2.49588328E-001  6.23531973E-001  1.22544541E-001
Al  2.49981863E-001  5.00018981E-001  2.48828792E-001
Al  3.75736979E-001  6.25067011E-001  2.50811983E-001
Al  3.72794278E-001  4.98847934E-001  3.75083003E-001
Al  2.48022568E-001  6.25682919E-001  3.75877113E-001
Al  2.50432174E-001  5.00018109E-001  4.99975470E-001
Al  3.76983865E-001  6.25119270E-001  4.97597808E-001
Al  3.75262619E-001  4.98953535E-001  6.25449928E-001
Al  2.49723426E-001  6.24632324E-001  6.27458029E-001
Al  2.51103980E-001  4.99728217E-001  7.51066180E-001
Al  3.75487651E-001  6.24931621E-001  7.51910996E-001
Al  3.74991179E-001  5.01033261E-001  8.74990940E-001
Al  2.50512886E-001  6.25213463E-001  8.74991077E-001
Al  2.49576483E-001  7.50495872E-001  1.14621287E-003
Al  3.77492275E-001  8.72635217E-001  -7.05094362E-004
Al  3.74942853E-001  7.48763826E-001  1.25018233E-001
Al  2.50298967E-001  8.74007401E-001  1.23147620E-001
Al  2.50353597E-001  7.47952064E-001  2.49981850E-001
Al  3.72525982E-001  8.74854566E-001  2.50287892E-001
Al  3.74979856E-001  7.49741153E-001  3.75048185E-001
Al  2.47510888E-001  8.74981856E-001  3.75821813E-001
Al  2.49620172E-001  7.49426921E-001  5.00142246E-001
Al  3.77322714E-001  8.76709986E-001  5.02307880E-001
Al  3.72899351E-001  7.51798130E-001  6.24981014E-001
Al  2.48319009E-001  8.75590416E-001  6.25017756E-001
Al  2.50106656E-001  7.49981276E-001  7.50387966E-001
Al  3.77419950E-001  8.75202471E-001  7.49865309E-001
Al  3.72615709E-001  7.50312817E-001  8.74517055E-001
Al  2.49902749E-001  8.74991629E-001  8.74937087E-001
Al  4.99981853E-001  -2.63237028E-005  -2.01279680E-003
Al  6.25019341E-001  1.25332104E-001  2.32445277E-003
Al  6.26949789E-001  4.48512827E-004  1.24991084E-001
Al  4.98594698E-001  1.23578137E-001  1.24981686E-001
Al  5.00256654E-001  -6.34133760E-004  2.50733734E-001
Al  6.27279954E-001  1.25201031E-001  2.48595507E-001
Al  6.22741142E-001  -2.29042017E-003  3.76218239E-001
Al  4.98654713E-001  1.26260079E-001  3.75334765E-001
Al  5.00235761E-001  -2.03823474E-003  5.00329645E-001
Al  6.22601021E-001  1.22577048E-001  4.99319758E-001
Al  6.24658812E-001  -2.23525145E-003  6.22769500E-001
Al  5.01102415E-001  1.25304501E-001  6.24933011E-001
Al  4.97645293E-001  -1.24449731E-003  7.50178801E-001
Al  6.27264398E-001  1.24981877E-001  7.51958451E-001
Al  6.24872132E-001  -1.87761572E-003  8.74594283E-001
Al  5.00925940E-001  1.24138195E-001  8.77495872E-001
Al  5.00512826E-001  2.50314601E-001  -2.24755649E-003
Al  6.24991184E-001  3.74126515E-001  4.38634188E-005
Al  6.24946686E-001  2.52352773E-001  1.23474237E-001
Al  5.00147037E-001  3.75968613E-001  1.27485319E-001
Al  5.00018846E-001  2.51058776E-001  2.51392840E-001
Al  6.24251847E-001  3.72965092E-001  2.47650572E-001
Al  6.23755819E-001  2.49093168E-001  3.75942520E-001
Al  4.97510677E-001  3.76734672E-001  3.75336756E-001
Al  4.99345087E-001  2.49156173E-001  4.99215446E-001
Al  6.26501184E-001  3.75504807E-001  5.00203357E-001
Al  6.23005466E-001  2.50140754E-001  6.26517745E-001
Al  4.99980817E-001  3.77231828E-001  6.24767684E-001
Al  4.97545258E-001  2.49716393E-001  7.47624958E-001
Al  6.25024112E-001  3.74990959E-001  7.49887216E-001
Al  6.24873556E-001  2.48356118E-001  8.77377002E-001
Al  5.02338274E-001  3.76664932E-001  8.72546922E-001
Al  5.00714629E-001  5.02114255E-001  2.33515234E-003
Al  6.25980260E-001  6.25008382E-001  2.44092920E-005
Al  6.25363241E-001  5.00026885E-001  1.26346436E-001
Al  4.98250566E-001  6.24938568E-001  1.25017844E-001
Al  5.00018122E-001  4.99981307E-001  2.48276864E-001
Al  6.24701988E-001  6.25736896E-001  2.49678819E-001
Al  6.24142702E-001  4.99991605E-001  3.75008388E-001
Al  4.97543558E-001  6.26977366E-001  3.72659241E-001
Al  5.00352405E-001  4.98946019E-001  5.00009214E-001
Al  6.25147706E-001  6.24028275E-001  4.99970018E-001
Al  6.23279649E-001  5.02464138E-001  6.23070700E-001
Al  5.02117321E-001  6.25492376E-001  6.26294621E-001
Al  4.97630510E-001  4.97971287E-001  7.50153163E-001
Al  6.26181493E-001  6.25009076E-001  7.49918180E-001
Al  6.27143095E-001  4.99991494E-001  8.74912861E-001
Al  5.01345738E-001  6.24551898E-001  8.74991623E-001
Al  5.00845207E-001  7.48262544E-001  2.33248844E-003
Al  6.25059562E-001  8.74695053E-001  1.82783714E-005
Al  6.26901224E-001  7.49223058E-001  1.22713002E-001
Al  5.00020031E-001  8.75070448E-001  1.25637117E-001
Al  4.98891852E-001  7.51352945E-001  2.49106072E-001
Al  6.25078224E-001  8.75018109E-001  2.50031016E-001
Al  6.24966176E-001  7.50595058E-001  3.74696038E-001
Al  5.01936103E-001  8.72524139E-001  3.76796565E-001
Al  5.00086266E-001  7.51127277E-001  4.98853367E-001
Al  6.24490030E-001  8.74757574E-001  4.99462257E-001
Al  6.24945279E-001  7.47522347E-001  6.24962655E-001
Al  4.98063249E-001  8.72755486E-001  6.24257129E-001
Al  5.00473086E-001  7.49873702E-001  7.50880042E-001
Al  6.26201355E-001  8.76033598E-001  7.49829372E-001
Al  6.23542993E-001  7.48381467E-001  8.77253050E-001
Al  4.99719523E-001  8.72705720E-001  8.74709640E-001
Al  7.48505530E-001  -1.11001704E-003  -1.22277476E-003
Al  8.74657719E-001  1.23649100E-001  -2.84436588E-005
Al  8.75962089E-001  -1.19009622E-004  1.24973918E-001
Al  7.51103189E-001  1.25222655E-001  1.24937612E-001
Al  7.49884673E-001  9.11007832E-005  2.49962224E-001
Al  8.76384977E-001  1.24731087E-001  2.50059765E-001
Al  8.75036334E-001  -3.68133061E-005  3.72832461E-001
Al  7.48569433E-001  1.24909233E-001  3.75046862E-001
Al  7.49333924E-001  -2.03516263E-003  5.02349459E-001
Al  8.74898696E-001  1.24287388E-001  4.99991186E-001
Al  8.75674339E-001  -1.60388946E-003  6.24964542E-001
Al  7.47610032E-001  1.27286099E-001  6.22842375E-001
Al  7.50008767E-001  1.26841094E-003  7.50556914E-001
Al  8.77289416E-001  1.25018753E-001  7.52249572E-001
Al  8.74694635E-001  1.15963999E-004  8.75098477E-001
Al  7.51112374E-001  1.25008478E-001  8.75561845E-001
Al  7.50096704E-001  2.47676605E-001  6.38263123E-004
Al  8.73656723E-001  3.76461731E-001  -2.46106113E-003
Al  8.74326048E-001  2.49060871E-001  1.25351575E-001
Al  7.50128140E-001  3.75076505E-001  1.22587363E-001
Al  7.52248662E-001  2.49671955E-001  2.50680562E-001
Al  8.75249672E-001  3.74981832E-001  2.48205003E-001
Al  8.75018241E-001  2.51155589E-001  3.75022168E-001
Al  7.50566032E-001  3.77152047E-001  3.76671343E-001
Al  7.48450249E-001  2.49980830E-001  4.99982373E-001
Al  8.75008914E-001  3.75268367E-001  5.00054073E-001
Al  8.75163837E-001  2.49990444E-001  6.25155411E-001
Al  7.50577620E-001  3.75894592E-001  6.24981891E-001
Al  7.49931187E-001  2.52151588E-001  7.49980636E-001
Al  8.74712088E-001  3.75042160E-001  7.50241084E-001
Al  8.77193633E-001  2.48656206E-001  8.75143332E-001
Al  7.50072184E-001  3.74819075E-001  8.77443463E-001
Al  7.52479070E-001  5.00032224E-001  1.16703356E-004
Al  8.74991050E-001  6.24968309E-001  -1.90840807E-003
Al  8.75008978E-001  4.98186660E-001  1.23538317E-001
Al  7.50061335E-001  6.22608379E-001  1.22654742E-001
Al  7.49953133E-001  5.00008863E-001  2.47517593E-001
Al  8.75268535E-001  6.25008714E-001  2.49980164E-001
Al  8.72931504E-001  4.99991550E-001  3.74774370E-001
Al  7.50070012E-001  6.22696210E-001  3.77077801E-001
Al  7.49148236E-001  5.00886768E-001  5.00253143E-001
Al  8.75077333E-001  6.22823458E-001  4.99432401E-001
Al  8.77418179E-001  5.00075151E-001  6.27056779E-001
Al  7.50150322E-001  6.25105626E-001  6.22675309E-001
Al  7.49885578E-001  4.97774614E-001  7.50603485E-001
Al  8.77159114E-001  6.24731798E-001  7.50124814E-001
Al  8.76673847E-001  4.98600454E-001  8.73847736E-001
Al  7.50113726E-001  6.23728049E-001  8.74991507E-001
Al  7.50584066E-001  7.50186581E-001  3.15545455E-004
Al  8.72678324E-001  8.77226970E-001  -1.06392697E-003
Al  8.76375169E-001  7.52366630E-001  1.27498367E-001
Al  7.49981296E-001  8.75774401E-001  1.23733253E-001
Al  7.49381767E-001  7.50039796E-001  2.51125844E-001
Al  8.77387126E-001  8.77201521E-001  2.50901216E-001
Al  8.74980310E-001  7.52463518E-001  3.76867102E-001
Al  7.49921869E-001  8.74955204E-001  3.74924062E-001
Al  7.47814356E-001  7.48640224E-001  5.00023231E-001
Al  8.77456455E-001  8.75376561E-001  5.02487859E-001
Al  8.76861582E-001  7.47520059E-001  6.26002626E-001
Al  7.50046911E-001  8.75902107E-001  6.22532845E-001
Al  7.52483761E-001  7.47500247E-001  7.50033844E-001
Al  8.74934010E-001  8.77455860E-001  7.47980223E-001
Al  8.76809582E-001  7.47575628E-001  8.77256731E-001
Al  7.50018135E-001  8.73083045E-001  8.74991624E-001
K_POINTS automatic
2 2 2 1 1 1
