&CONTROL
restart_mode = 'from_scratch',
calculation = 'scf',
outdir = '/gpfs/bb/bxp912/scratch',
pseudo_dir = '/gpfs/bb/bxp912/pseudopotentials',
prefix = '3.00000000E-001',
etot_conv_thr = 1.00000000E-007,
forc_conv_thr = 1.00000000E-007,
nstep = 200,
tprnfor = .true.,
tstress = .true.,
disk_io = 'low',
/
&SYSTEM
ibrav = 14,
celldm(1) = 3.05001797E+001,
celldm(2) = 1.00000000E+000,
celldm(3) = 1.00000000E+000,
celldm(4) = 0.00000000E+000,
celldm(5) = 0.00000000E+000,
celldm(6) = 0.00000000E+000,
nat = 256,
ntyp = 1,
ecutwfc = 35,
ecutrho = 208,
occupations = 'smearing',
smearing = 'mv',
degauss = 5.00000007E-002,
/
&ELECTRONS
diagonalization = 'david',
mixing_mode = plain,
mixing_beta = 6.99999988E-001,
conv_thr = 1.00000000E-007,
/
&IONS
ion_dynamics = 'bfgs',
/
&CELL
cell_dynamics = 'bfgs',
press = 0.00000000E+000,
cell_factor = 2.00000000E+000,
/
ATOMIC_SPECIES
Al  2.69815390E+001  Al.pbe-n-kjpaw_psl.0.1.UPF
ATOMIC_POSITIONS crystal
Al  2.38701305E-003  7.95060828E-004  -2.30852168E-003
Al  1.25082703E-001  1.25041165E-001  -5.93599173E-004
Al  1.25203940E-001  -1.95072649E-005  1.24847838E-001
Al  -8.66132230E-006  1.27151295E-001  1.25118065E-001
Al  2.05219594E-003  2.84544409E-004  2.51396598E-001
Al  1.25204146E-001  1.23402643E-001  2.50283819E-001
Al  1.24991204E-001  -4.87187151E-005  3.74386166E-001
Al  2.42967759E-003  1.23743186E-001  3.72952499E-001
Al  -7.56311275E-004  -7.89083218E-004  5.00111091E-001
Al  1.26508699E-001  1.24991247E-001  5.00153111E-001
Al  1.25641198E-001  -6.15020174E-004  6.27351248E-001
Al  -3.26746305E-004  1.22510971E-001  6.24540150E-001
Al  -6.31916659E-005  2.14467151E-003  7.49710844E-001
Al  1.24977757E-001  1.26716122E-001  7.48918682E-001
Al  1.24911641E-001  -1.79311802E-004  8.73700118E-001
Al  -2.11181016E-005  1.25048138E-001  8.77173281E-001
Al  2.12028074E-003  2.47803051E-001  -1.93344874E-003
Al  1.23339880E-001  3.73614547E-001  1.94586327E-005
Al  1.24857320E-001  2.49954164E-001  1.25008370E-001
Al  1.37721620E-004  3.75045053E-001  1.22560508E-001
Al  1.55330995E-003  2.51460332E-001  2.49577403E-001
Al  1.22528591E-001  3.77333142E-001  2.51490459E-001
Al  1.24966326E-001  2.52059400E-001  3.72505654E-001
Al  -1.11768582E-003  3.75691077E-001  3.75422585E-001
Al  -2.10137134E-003  2.49218809E-001  4.98109747E-001
Al  1.24990809E-001  3.77388662E-001  5.00018200E-001
Al  1.22505263E-001  2.47582232E-001  6.25128418E-001
Al  1.44414294E-003  3.74981873E-001  6.24643012E-001
Al  -1.97815386E-005  2.49609324E-001  7.50240135E-001
Al  1.24091728E-001  3.75980810E-001  7.49518344E-001
Al  1.24027321E-001  2.49762138E-001  8.76342070E-001
Al  7.76176624E-004  3.75062804E-001  8.75409048E-001
Al  -2.04710340E-003  4.99990392E-001  -8.40412865E-004
Al  1.23254949E-001  6.24045470E-001  2.33906555E-003
Al  1.23056926E-001  4.99981636E-001  1.25316878E-001
Al  2.40520959E-005  6.24846095E-001  1.22761535E-001
Al  1.08368473E-003  4.97967927E-001  2.47512490E-001
Al  1.27485784E-001  6.22722094E-001  2.50019041E-001
Al  1.24158553E-001  4.97550057E-001  3.77480757E-001
Al  -5.33455602E-005  6.25018070E-001  3.75023997E-001
Al  7.48857777E-004  4.99991376E-001  4.99982312E-001
Al  1.24273665E-001  6.24678082E-001  4.97732128E-001
Al  1.25302895E-001  5.00047887E-001  6.25034729E-001
Al  8.42842946E-006  6.24425240E-001  6.26626957E-001
Al  2.33164837E-003  5.02492898E-001  7.50210495E-001
Al  1.23548154E-001  6.24468527E-001  7.49513903E-001
Al  1.26336327E-001  5.00028105E-001  8.75070006E-001
Al  -1.95695967E-003  6.24981619E-001  8.75856767E-001
Al  -1.83367493E-004  7.51618583E-001  -3.89091126E-004
Al  1.25785462E-001  8.73401911E-001  -8.71012408E-006
Al  1.25026816E-001  7.52434838E-001  1.25029886E-001
Al  -1.29595934E-004  8.72502585E-001  1.23330016E-001
Al  1.53912524E-004  7.49974406E-001  2.50137503E-001
Al  1.23805884E-001  8.75438442E-001  2.50078892E-001
Al  1.25492929E-001  7.48973046E-001  3.75112507E-001
Al  2.48017902E-003  8.74572069E-001  3.74333923E-001
Al  -3.96228979E-004  7.47500479E-001  4.98458519E-001
Al  1.25022717E-001  8.75925390E-001  4.98338390E-001
Al  1.26659445E-001  7.48095574E-001  6.27489713E-001
Al  -3.73227026E-005  8.74431706E-001  6.24956270E-001
Al  -9.52159542E-004  7.49991591E-001  7.49754060E-001
Al  1.26096507E-001  8.75091651E-001  7.52418913E-001
Al  1.23671548E-001  7.49342461E-001  8.72847127E-001
Al  2.11900981E-003  8.74608393E-001  8.74364365E-001
Al  2.48052363E-001  1.02933021E-003  1.91402359E-005
Al  3.75008870E-001  1.26373439E-001  -2.22568030E-004
Al  3.75277798E-001  -8.37364231E-006  1.26478485E-001
Al  2.50706601E-001  1.25008660E-001  1.26964001E-001
Al  2.52477736E-001  -5.43918598E-004  2.50018791E-001
Al  3.74719298E-001  1.23466536E-001  2.49929493E-001
Al  3.77245985E-001  2.08008248E-005  3.75197878E-001
Al  2.49730281E-001  1.24060580E-001  3.75119514E-001
Al  2.51187571E-001  -4.37966288E-004  5.00055451E-001
Al  3.74475541E-001  1.23650211E-001  5.01108704E-001
Al  3.75291223E-001  1.09792524E-003  6.26337415E-001
Al  2.49978883E-001  1.22501495E-001  6.25019772E-001
Al  2.51882531E-001  2.19632680E-003  7.48620986E-001
Al  3.77490296E-001  1.24096306E-001  7.51565699E-001
Al  3.74950383E-001  -1.25856585E-003  8.72516285E-001
Al  2.49979476E-001  1.26291064E-001  8.74991529E-001
Al  2.47699424E-001  2.49842320E-001  -1.22400977E-004
Al  3.74980196E-001  3.74991605E-001  -2.06943074E-004
Al  3.77470150E-001  2.48540224E-001  1.25116626E-001
Al  2.49990405E-001  3.76300333E-001  1.23386823E-001
Al  2.50062726E-001  2.49991508E-001  2.50155341E-001
Al  3.72524534E-001  3.75047347E-001  2.52446027E-001
Al  3.75018644E-001  2.47577063E-001  3.75171336E-001
Al  2.48727452E-001  3.74194424E-001  3.74971232E-001
Al  2.50352840E-001  2.52261848E-001  5.00429500E-001
Al  3.76442977E-001  3.74955556E-001  4.97804812E-001
Al  3.73419045E-001  2.50018283E-001  6.24778390E-001
Al  2.48872475E-001  3.75078734E-001  6.23807632E-001
Al  2.52038597E-001  2.48212179E-001  7.49957979E-001
Al  3.72608685E-001  3.76069699E-001  7.49975578E-001
Al  3.72948906E-001  2.52316653E-001  8.73785892E-001
Al  2.49954695E-001  3.76808821E-001  8.74105203E-001
Al  2.50165776E-001  4.98261672E-001  2.45985920E-003
Al  3.76464809E-001  6.25019248E-001  4.63279024E-004
Al  3.75569007E-001  4.99980164E-001  1.25665590E-001
Al  2.51944301E-001  6.27111392E-001  1.25022114E-001
Al  2.51969888E-001  4.99912606E-001  2.49354466E-001
Al  3.75018266E-001  6.25022320E-001  2.52251667E-001
Al  3.75686129E-001  5.00349269E-001  3.75008589E-001
Al  2.49458022E-001  6.26135065E-001  3.75108917E-001
Al  2.51915204E-001  5.00322452E-001  4.97502766E-001
Al  3.74874653E-001  6.24223516E-001  4.98241529E-001
Al  3.74703222E-001  5.00079593E-001  6.23893532E-001
Al  2.50018202E-001  6.25072096E-001  6.22838059E-001
Al  2.48516001E-001  5.01091606E-001  7.48082766E-001
Al  3.76100244E-001  6.27287557E-001  7.49936218E-001
Al  3.74838624E-001  5.00435998E-001  8.77193946E-001
Al  2.48656497E-001  6.25079831E-001  8.74981893E-001
Al  2.48340149E-001  7.50039391E-001  -3.78647147E-004
Al  3.72861041E-001  8.72608473E-001  -1.97336638E-003
Al  3.75023389E-001  7.52154530E-001  1.27348819E-001
Al  2.48736457E-001  8.74901154E-001  1.25823318E-001
Al  2.50169039E-001  7.48085736E-001  2.50268431E-001
Al  3.75018233E-001  8.75727678E-001  2.50209766E-001
Al  3.77165882E-001  7.50587867E-001  3.75471812E-001
Al  2.49981877E-001  8.75147280E-001  3.75080975E-001
Al  2.49499819E-001  7.51684729E-001  4.99818894E-001
Al  3.75107222E-001  8.72810185E-001  4.99915359E-001
Al  3.75147313E-001  7.48045431E-001  6.25568697E-001
Al  2.51362562E-001  8.75859055E-001  6.24850436E-001
Al  2.49566865E-001  7.49720583E-001  7.49764850E-001
Al  3.75099061E-001  8.74520956E-001  7.49041406E-001
Al  3.73031200E-001  7.49077655E-001  8.74452584E-001
Al  2.49634046E-001  8.73265272E-001  8.74576272E-001
Al  5.02401152E-001  -1.34040043E-003  3.16991878E-004
Al  6.25689427E-001  1.24980861E-001  2.48255663E-003
Al  6.25122633E-001  1.34939379E-004  1.25202544E-001
Al  5.00036224E-001  1.26157178E-001  1.22984676E-001
Al  5.00196061E-001  -8.37259861E-006  2.49980640E-001
Al  6.24935960E-001  1.24953467E-001  2.47669368E-001
Al  6.26018938E-001  -2.21941585E-003  3.75355200E-001
Al  5.00047902E-001  1.24900773E-001  3.73615455E-001
Al  4.99921967E-001  -1.05896561E-003  4.99981692E-001
Al  6.23836095E-001  1.25353024E-001  4.99786161E-001
Al  6.24915046E-001  3.66440137E-005  6.22542352E-001
Al  5.00018134E-001  1.24981548E-001  6.25008547E-001
Al  5.01082596E-001  1.47622596E-004  7.49981116E-001
Al  6.23152069E-001  1.25446922E-001  7.50070646E-001
Al  6.25008387E-001  -2.12518853E-005  8.73007472E-001
Al  5.02459545E-001  1.24991514E-001  8.73559444E-001
Al  4.99872679E-001  2.50079746E-001  1.84164198E-005
Al  6.25158159E-001  3.74981071E-001  -1.80593059E-004
Al  6.25431575E-001  2.49958412E-001  1.25072380E-001
Al  4.97625429E-001  3.76195223E-001  1.25173695E-001
Al  5.01239635E-001  2.52226678E-001  2.49886979E-001
Al  6.24071429E-001  3.72589777E-001  2.50018502E-001
Al  6.24906674E-001  2.52011768E-001  3.74952377E-001
Al  5.00399025E-001  3.73328850E-001  3.75892943E-001
Al  5.00066480E-001  2.49273745E-001  5.00057571E-001
Al  6.25950469E-001  3.72914010E-001  4.97815483E-001
Al  6.24981874E-001  2.50448237E-001  6.25574886E-001
Al  5.02164990E-001  3.75036063E-001  6.24981825E-001
Al  4.99980632E-001  2.49361281E-001  7.49927873E-001
Al  6.25474132E-001  3.73064655E-001  7.50110193E-001
Al  6.26332102E-001  2.50018325E-001  8.76185447E-001
Al  4.97630523E-001  3.74398921E-001  8.76936291E-001
Al  4.97761995E-001  4.97656672E-001  -2.59171270E-005
Al  6.24174014E-001  6.26719815E-001  -9.22260143E-006
Al  6.25277198E-001  4.99865755E-001  1.26984377E-001
Al  4.99395731E-001  6.27118223E-001  1.25056326E-001
Al  5.00467996E-001  4.99533662E-001  2.51103233E-001
Al  6.25134659E-001  6.22511462E-001  2.50018992E-001
Al  6.24981893E-001  4.99991595E-001  3.75198933E-001
Al  5.02236559E-001  6.25908231E-001  3.77452055E-001
Al  4.99145110E-001  4.99836709E-001  4.99981491E-001
Al  6.23308518E-001  6.25073527E-001  4.98275818E-001
Al  6.24345731E-001  5.02482942E-001  6.22864688E-001
Al  5.02075968E-001  6.25025983E-001  6.26510402E-001
Al  4.97607065E-001  5.00253698E-001  7.50182751E-001
Al  6.24705280E-001  6.22871030E-001  7.50042441E-001
Al  6.24970844E-001  4.97944655E-001  8.75009076E-001
Al  5.00137470E-001  6.25161688E-001  8.77269846E-001
Al  5.01577545E-001  7.50537244E-001  -1.90435104E-005
Al  6.26604030E-001  8.74951367E-001  1.65873229E-003
Al  6.24878901E-001  7.50612232E-001  1.22529640E-001
Al  4.98249243E-001  8.74980738E-001  1.25008536E-001
Al  5.00544187E-001  7.47532656E-001  2.50116356E-001
Al  6.25019524E-001  8.74845385E-001  2.49981808E-001
Al  6.27457687E-001  7.50008679E-001  3.74858647E-001
Al  4.99991333E-001  8.75008435E-001  3.75071602E-001
Al  4.99793872E-001  7.48617968E-001  5.02168291E-001
Al  6.24919677E-001  8.74653789E-001  5.00068578E-001
Al  6.24902054E-001  7.49942760E-001  6.23450618E-001
Al  4.99043933E-001  8.76723888E-001  6.25021160E-001
Al  5.02399347E-001  7.48477841E-001  7.51251667E-001
Al  6.24496880E-001  8.74496409E-001  7.49959852E-001
Al  6.24584278E-001  7.49904878E-001  8.73255421E-001
Al  4.99937126E-001  8.75042247E-001  8.75661966E-001
Al  7.49785993E-001  -1.56303946E-003  1.29754175E-003
Al  8.73064140E-001  1.25766365E-001  3.78690421E-005
Al  8.75092592E-001  6.02029948E-005  1.22525333E-001
Al  7.50175829E-001  1.24991154E-001  1.25079458E-001
Al  7.49823088E-001  4.31765337E-004  2.50073706E-001
Al  8.75272683E-001  1.25276386E-001  2.50420729E-001
Al  8.73649692E-001  -1.59141380E-004  3.74023600E-001
Al  7.50333164E-001  1.24981635E-001  3.74979870E-001
Al  7.49403717E-001  2.43555636E-004  4.97605402E-001
Al  8.75297219E-001  1.27277357E-001  4.98869102E-001
Al  8.75200607E-001  2.43326462E-003  6.22871518E-001
Al  7.49978028E-001  1.25123516E-001  6.27230163E-001
Al  7.51091653E-001  8.85915476E-005  7.50048762E-001
Al  8.74748466E-001  1.24926895E-001  7.47821347E-001
Al  8.73832389E-001  -1.96432463E-003  8.77442174E-001
Al  7.49972340E-001  1.27062235E-001  8.72711782E-001
Al  7.51136120E-001  2.47501288E-001  1.77860900E-003
Al  8.74969181E-001  3.75743861E-001  -2.41867475E-003
Al  8.72980733E-001  2.49864985E-001  1.25456684E-001
Al  7.50587327E-001  3.77202253E-001  1.26171188E-001
Al  7.51525873E-001  2.50018139E-001  2.51301871E-001
Al  8.72985362E-001  3.75018609E-001  2.51066958E-001
Al  8.75399119E-001  2.49740535E-001  3.74862246E-001
Al  7.51426970E-001  3.77329655E-001  3.75917940E-001
Al  7.49858276E-001  2.50437501E-001  5.00449194E-001
Al  8.75041601E-001  3.72530429E-001  5.00745079E-001
Al  8.75172845E-001  2.49980780E-001  6.24981353E-001
Al  7.47804112E-001  3.75121579E-001  6.25054205E-001
Al  7.48847099E-001  2.49825838E-001  7.47501177E-001
Al  8.75021570E-001  3.77299278E-001  7.51586500E-001
Al  8.76630563E-001  2.47513737E-001  8.75018114E-001
Al  7.50728313E-001  3.76635217E-001  8.74565160E-001
Al  7.47919290E-001  5.00615721E-001  -1.34397684E-004
Al  8.75128135E-001  6.23199218E-001  -2.45471533E-003
Al  8.73758544E-001  4.99991514E-001  1.24729595E-001
Al  7.52494644E-001  6.24554835E-001  1.24848528E-001
Al  7.48172334E-001  5.01924571E-001  2.49488445E-001
Al  8.75369283E-001  6.23993134E-001  2.50028296E-001
Al  8.77222926E-001  4.99491506E-001  3.74981891E-001
Al  7.50008581E-001  6.25244447E-001  3.74362763E-001
Al  7.51737478E-001  4.99701538E-001  5.00027465E-001
Al  8.73652779E-001  6.25008496E-001  5.02139221E-001
Al  8.74501939E-001  4.98866130E-001  6.23639670E-001
Al  7.49912724E-001  6.24737454E-001  6.25101287E-001
Al  7.47823879E-001  5.00856426E-001  7.49862829E-001
Al  8.74097626E-001  6.23224389E-001  7.49077748E-001
Al  8.76594051E-001  4.99703043E-001  8.73775786E-001
Al  7.52494938E-001  6.24981628E-001  8.74930222E-001
Al  7.49830060E-001  7.48942509E-001  -2.40349856E-003
Al  8.75050401E-001  8.75381875E-001  -2.17132981E-003
Al  8.73526740E-001  7.50020185E-001  1.22763086E-001
Al  7.49237207E-001  8.72510551E-001  1.23291874E-001
Al  7.49895715E-001  7.47691077E-001  2.50472000E-001
Al  8.72551619E-001  8.74991223E-001  2.49791960E-001
Al  8.74713745E-001  7.49900375E-001  3.74981669E-001
Al  7.49224681E-001  8.75601672E-001  3.75638927E-001
Al  7.48386058E-001  7.50436099E-001  5.00057498E-001
Al  8.74904207E-001  8.73713848E-001  4.99957531E-001
Al  8.76129496E-001  7.51210372E-001  6.24981846E-001
Al  7.52411346E-001  8.75847776E-001  6.22767412E-001
Al  7.48112290E-001  7.49956597E-001  7.49361111E-001
Al  8.74990720E-001  8.75091291E-001  7.50018562E-001
Al  8.75032011E-001  7.49355857E-001  8.75190271E-001
Al  7.52495219E-001  8.75348123E-001  8.76249937E-001
K_POINTS automatic
2 2 2 1 1 1
