&CONTROL
restart_mode = 'from_scratch',
calculation = 'scf',
outdir = '/gpfs/bb/bxp912/scratch',
pseudo_dir = '/gpfs/bb/bxp912/pseudopotentials',
prefix = '3.00000000E-001',
etot_conv_thr = 1.00000000E-007,
forc_conv_thr = 1.00000000E-007,
nstep = 200,
tprnfor = .true.,
tstress = .true.,
disk_io = 'low',
/
&SYSTEM
ibrav = 14,
celldm(1) = 3.05001797E+001,
celldm(2) = 1.00000000E+000,
celldm(3) = 1.00000000E+000,
celldm(4) = 0.00000000E+000,
celldm(5) = 0.00000000E+000,
celldm(6) = 0.00000000E+000,
nat = 256,
ntyp = 1,
ecutwfc = 35,
ecutrho = 208,
occupations = 'smearing',
smearing = 'mv',
degauss = 5.00000007E-002,
/
&ELECTRONS
diagonalization = 'david',
mixing_mode = plain,
mixing_beta = 6.99999988E-001,
conv_thr = 1.00000000E-007,
/
&IONS
ion_dynamics = 'bfgs',
/
&CELL
cell_dynamics = 'bfgs',
press = 0.00000000E+000,
cell_factor = 2.00000000E+000,
/
ATOMIC_SPECIES
Al  2.69815390E+001  Al.pbe-n-kjpaw_psl.0.1.UPF
ATOMIC_POSITIONS crystal
Al  -2.17361318E-003  -1.83927067E-005  -1.60641555E-003
Al  1.24981504E-001  1.25312347E-001  1.81541988E-005
Al  1.24982271E-001  7.74003779E-004  1.25132669E-001
Al  -4.79902486E-004  1.24991486E-001  1.26512624E-001
Al  2.69687434E-004  2.42047061E-003  2.52450164E-001
Al  1.27477071E-001  1.27300764E-001  2.50607650E-001
Al  1.27072080E-001  5.39055654E-004  3.74880095E-001
Al  2.16495227E-005  1.25022561E-001  3.74323727E-001
Al  1.96987285E-004  -1.05664535E-003  4.97508872E-001
Al  1.22536364E-001  1.25211291E-001  5.00047750E-001
Al  1.22589973E-001  -7.49349350E-005  6.24852959E-001
Al  -2.05923868E-004  1.25034467E-001  6.24951168E-001
Al  1.64644381E-003  -9.05927214E-006  7.49819810E-001
Al  1.24471301E-001  1.22997585E-001  7.51936720E-001
Al  1.24126421E-001  -2.30970394E-004  8.73487244E-001
Al  -1.71252685E-003  1.23847474E-001  8.76842360E-001
Al  2.63668690E-005  2.47513829E-001  -2.32064525E-003
Al  1.26572965E-001  3.75008440E-001  1.87358898E-005
Al  1.24981656E-001  2.47554543E-001  1.24715280E-001
Al  9.92863705E-004  3.75206131E-001  1.24088876E-001
Al  -5.05999600E-004  2.50018846E-001  2.47534788E-001
Al  1.27498955E-001  3.77355377E-001  2.49286287E-001
Al  1.24199976E-001  2.51873984E-001  3.72638843E-001
Al  2.20687644E-005  3.75019423E-001  3.76104680E-001
Al  -8.66197294E-004  2.50238324E-001  5.00045105E-001
Al  1.24922998E-001  3.77447454E-001  4.99835023E-001
Al  1.24963878E-001  2.48973197E-001  6.25513394E-001
Al  2.41267441E-003  3.76697431E-001  6.23429303E-001
Al  7.59941395E-004  2.50276069E-001  7.50213813E-001
Al  1.24990182E-001  3.75701162E-001  7.52102486E-001
Al  1.23179016E-001  2.50483309E-001  8.73796517E-001
Al  -2.22288710E-004  3.74947470E-001  8.74764969E-001
Al  1.54093845E-004  4.97913182E-001  -9.32544837E-004
Al  1.24216196E-001  6.25196309E-001  9.24188375E-006
Al  1.23210501E-001  4.98909447E-001  1.24776536E-001
Al  -7.50034216E-004  6.27326637E-001  1.24515189E-001
Al  -1.90411833E-003  5.00263831E-001  2.49134196E-001
Al  1.24918731E-001  6.23660904E-001  2.50313409E-001
Al  1.25008516E-001  5.00071421E-001  3.76568352E-001
Al  1.59354721E-003  6.24890982E-001  3.75018950E-001
Al  2.08270986E-005  4.99585872E-001  5.00722373E-001
Al  1.24271029E-001  6.25542100E-001  5.02421632E-001
Al  1.25048124E-001  4.98024871E-001  6.25906838E-001
Al  -1.12372638E-004  6.25731808E-001  6.22805407E-001
Al  2.25007102E-003  4.99209977E-001  7.49661445E-001
Al  1.23305490E-001  6.24004461E-001  7.48900198E-001
Al  1.24064007E-001  5.01447518E-001  8.74789455E-001
Al  -1.06102820E-004  6.22637958E-001  8.76451720E-001
Al  -8.85151160E-006  7.51201971E-001  2.48935073E-003
Al  1.26586557E-001  8.72646111E-001  -5.00269685E-004
Al  1.24990611E-001  7.49943443E-001  1.22531974E-001
Al  -1.19215778E-003  8.77157635E-001  1.23089311E-001
Al  1.77852096E-003  7.50052214E-001  2.49898670E-001
Al  1.24237960E-001  8.74960255E-001  2.50704826E-001
Al  1.25023295E-001  7.52133187E-001  3.72788556E-001
Al  -2.02227149E-005  8.75452181E-001  3.75396378E-001
Al  7.32924012E-004  7.50813968E-001  4.99978729E-001
Al  1.25486689E-001  8.74327797E-001  5.00022559E-001
Al  1.25994331E-001  7.49982177E-001  6.26240472E-001
Al  -2.30344047E-004  8.75008803E-001  6.23681862E-001
Al  3.26567161E-004  7.47860303E-001  7.50344361E-001
Al  1.24967312E-001  8.74924425E-001  7.50987787E-001
Al  1.26845806E-001  7.50008480E-001  8.75144450E-001
Al  2.42006803E-003  8.74765538E-001  8.76796526E-001
Al  2.50183716E-001  -4.61345480E-004  -2.21103461E-003
Al  3.76301405E-001  1.22517694E-001  -2.40005451E-005
Al  3.75021422E-001  -8.81752120E-004  1.24685900E-001
Al  2.50008453E-001  1.26216943E-001  1.25468277E-001
Al  2.49981040E-001  -2.28601849E-003  2.49968966E-001
Al  3.75008931E-001  1.24505593E-001  2.50597261E-001
Al  3.75654770E-001  -1.50878592E-004  3.75093648E-001
Al  2.49913923E-001  1.24248254E-001  3.74982322E-001
Al  2.49022225E-001  3.11941904E-004  4.99303178E-001
Al  3.75609443E-001  1.25075630E-001  5.00066923E-001
Al  3.76254082E-001  -8.75248391E-006  6.24890960E-001
Al  2.47651502E-001  1.25038212E-001  6.24123025E-001
Al  2.49960344E-001  5.38024013E-005  7.47668113E-001
Al  3.75339160E-001  1.24522369E-001  7.49803520E-001
Al  3.74586897E-001  2.21220654E-004  8.75042065E-001
Al  2.49630003E-001  1.23972501E-001  8.73963436E-001
Al  2.49737864E-001  2.49977862E-001  1.82592912E-005
Al  3.72640957E-001  3.77322377E-001  -1.67006406E-003
Al  3.75295331E-001  2.49991464E-001  1.24490555E-001
Al  2.47500271E-001  3.77030035E-001  1.25058741E-001
Al  2.49884162E-001  2.50982545E-001  2.50850068E-001
Al  3.74904098E-001  3.72567223E-001  2.51517718E-001
Al  3.76723243E-001  2.48684683E-001  3.73541907E-001
Al  2.49646171E-001  3.72799448E-001  3.75019168E-001
Al  2.49795691E-001  2.48474596E-001  5.00137244E-001
Al  3.75522884E-001  3.75327307E-001  5.02397126E-001
Al  3.77489917E-001  2.52292333E-001  6.22854832E-001
Al  2.49884323E-001  3.74680786E-001  6.25534321E-001
Al  2.50074067E-001  2.47531166E-001  7.51085752E-001
Al  3.74881219E-001  3.77282764E-001  7.51514546E-001
Al  3.77492776E-001  2.50065648E-001  8.75052119E-001
Al  2.51725723E-001  3.74377294E-001  8.75167643E-001
Al  2.52409114E-001  4.99922630E-001  -4.76884653E-004
Al  3.75157447E-001  6.24190654E-001  3.23907227E-005
Al  3.74643627E-001  4.99978893E-001  1.25308414E-001
Al  2.52470124E-001  6.25018345E-001  1.25147500E-001
Al  2.49319980E-001  5.00145490E-001  2.48351729E-001
Al  3.75107150E-001  6.26426030E-001  2.49979823E-001
Al  3.76838831E-001  5.00515929E-001  3.73558085E-001
Al  2.50615795E-001  6.24951377E-001  3.72508423E-001
Al  2.50281215E-001  4.97543005E-001  5.02444723E-001
Al  3.74961456E-001  6.25008662E-001  4.99745950E-001
Al  3.74045358E-001  4.97550234E-001  6.25018409E-001
Al  2.49410118E-001  6.25074590E-001  6.24444287E-001
Al  2.47510072E-001  4.99455374E-001  7.51213915E-001
Al  3.77075682E-001  6.23221037E-001  7.47590675E-001
Al  3.74886720E-001  4.97805325E-001  8.76663850E-001
Al  2.48964628E-001  6.25198777E-001  8.74975627E-001
Al  2.52492544E-001  7.48164030E-001  -8.37398065E-006
Al  3.74495361E-001  8.74906251E-001  -1.09092352E-003
Al  3.74869086E-001  7.47830001E-001  1.23797089E-001
Al  2.50195907E-001  8.76815999E-001  1.24569295E-001
Al  2.50018107E-001  7.49981623E-001  2.49647528E-001
Al  3.74719469E-001  8.75737057E-001  2.49822615E-001
Al  3.72858807E-001  7.47509623E-001  3.77499189E-001
Al  2.50244346E-001  8.72681361E-001  3.74991330E-001
Al  2.47543519E-001  7.49981342E-001  5.00053887E-001
Al  3.75121978E-001  8.75082633E-001  5.00568775E-001
Al  3.75017020E-001  7.49956071E-001  6.24529299E-001
Al  2.52292617E-001  8.75516358E-001  6.26066211E-001
Al  2.49940368E-001  7.50061069E-001  7.49360892E-001
Al  3.75601398E-001  8.76887171E-001  7.51856246E-001
Al  3.75008370E-001  7.51564965E-001  8.74949406E-001
Al  2.50008493E-001  8.75048489E-001  8.75191940E-001
Al  5.00096923E-001  -1.69234167E-003  1.09555781E-003
Al  6.23820624E-001  1.25233305E-001  1.49607731E-004
Al  6.24518792E-001  2.47298953E-003  1.24101949E-001
Al  4.99466939E-001  1.25309501E-001  1.25308947E-001
Al  4.98825636E-001  -2.98123025E-005  2.52007625E-001
Al  6.24843657E-001  1.27361479E-001  2.50020915E-001
Al  6.24981766E-001  -7.03382674E-004  3.74672104E-001
Al  4.99976031E-001  1.22619993E-001  3.73697793E-001
Al  4.99713198E-001  2.49600335E-003  4.99991586E-001
Al  6.23115779E-001  1.23994810E-001  5.02498408E-001
Al  6.25915915E-001  1.47451455E-003  6.26037559E-001
Al  5.01148602E-001  1.25018913E-001  6.25008418E-001
Al  4.99978758E-001  2.40668365E-003  7.50265569E-001
Al  6.25008394E-001  1.23184669E-001  7.49207470E-001
Al  6.26308828E-001  2.43849032E-003  8.73974348E-001
Al  4.99619957E-001  1.24923525E-001  8.75880310E-001
Al  5.00018128E-001  2.50944058E-001  -5.91726724E-004
Al  6.23108483E-001  3.77475006E-001  8.49463336E-006
Al  6.25436122E-001  2.49555123E-001  1.25027335E-001
Al  4.99991136E-001  3.72521262E-001  1.24534493E-001
Al  5.00367664E-001  2.47636087E-001  2.48462483E-001
Al  6.25065480E-001  3.77487622E-001  2.49572772E-001
Al  6.25435628E-001  2.50206576E-001  3.75008529E-001
Al  4.97561177E-001  3.76915639E-001  3.75090393E-001
Al  4.99981839E-001  2.50399219E-001  5.01968582E-001
Al  6.27403015E-001  3.74388278E-001  4.99246843E-001
Al  6.25998853E-001  2.51705301E-001  6.27093923E-001
Al  5.01710660E-001  3.74235108E-001  6.25824487E-001
Al  5.00758706E-001  2.49904350E-001  7.50486833E-001
Al  6.24926391E-001  3.77459176E-001  7.48460953E-001
Al  6.25768145E-001  2.50033942E-001  8.74816013E-001
Al  4.98580075E-001  3.77370851E-001  8.75037434E-001
Al  5.00476668E-001  5.00268782E-001  1.23147823E-004
Al  6.22500248E-001  6.23448412E-001  -7.14176138E-005
Al  6.26976002E-001  5.00161975E-001  1.24977435E-001
Al  4.99809154E-001  6.25344367E-001  1.25018414E-001
Al  5.02093439E-001  4.99677433E-001  2.50339162E-001
Al  6.25173075E-001  6.23669296E-001  2.50323279E-001
Al  6.26201510E-001  4.99742625E-001  3.73068031E-001
Al  5.02183615E-001  6.24967273E-001  3.74937684E-001
Al  5.00075550E-001  5.00018112E-001  5.01864550E-001
Al  6.24718870E-001  6.24981547E-001  4.99945248E-001
Al  6.24825764E-001  4.99691315E-001  6.24884381E-001
Al  5.00036926E-001  6.25407865E-001  6.24026247E-001
Al  5.00330967E-001  4.97520560E-001  7.49003151E-001
Al  6.24620162E-001  6.26078231E-001  7.50138322E-001
Al  6.24981843E-001  5.00822407E-001  8.74981611E-001
Al  4.97995297E-001  6.27315707E-001  8.76494403E-001
Al  4.99074084E-001  7.50106273E-001  -2.26062927E-003
Al  6.23892961E-001  8.72605379E-001  6.78655025E-005
Al  6.27036648E-001  7.51973445E-001  1.23128638E-001
Al  5.02170773E-001  8.75272051E-001  1.22604101E-001
Al  5.02499834E-001  7.52426342E-001  2.49061231E-001
Al  6.24403023E-001  8.73448198E-001  2.49944539E-001
Al  6.25288110E-001  7.51064286E-001  3.74840636E-001
Al  4.99918391E-001  8.72885241E-001  3.74940103E-001
Al  5.00042152E-001  7.50108846E-001  4.97944565E-001
Al  6.24939014E-001  8.72625452E-001  4.99895269E-001
Al  6.24682809E-001  7.49603978E-001  6.26300624E-001
Al  4.98519689E-001  8.72839402E-001  6.24300004E-001
Al  4.99950873E-001  7.50663692E-001  7.49991484E-001
Al  6.26436307E-001  8.72739815E-001  7.50030252E-001
Al  6.25057691E-001  7.49493204E-001  8.74420823E-001
Al  4.98407767E-001  8.74111828E-001  8.77411838E-001
Al  7.47501255E-001  1.16541359E-003  1.00199089E-003
Al  8.72906312E-001  1.24852138E-001  9.13626626E-005
Al  8.74991395E-001  -3.53010374E-005  1.26018289E-001
Al  7.49981203E-001  1.24910625E-001  1.25728862E-001
Al  7.49311945E-001  1.13362489E-004  2.48417891E-001
Al  8.72788722E-001  1.25008581E-001  2.50686181E-001
Al  8.74615940E-001  -1.88642410E-005  3.75017349E-001
Al  7.51742644E-001  1.24908222E-001  3.74286790E-001
Al  7.50091448E-001  -4.31934930E-004  4.99812922E-001
Al  8.75031868E-001  1.25879773E-001  5.02310120E-001
Al  8.72707734E-001  -1.57295158E-003  6.23917244E-001
Al  7.50110882E-001  1.25276475E-001  6.24816900E-001
Al  7.50741269E-001  1.83233546E-005  7.50907628E-001
Al  8.72522362E-001  1.24170475E-001  7.50303806E-001
Al  8.76606452E-001  -3.26822831E-005  8.73306867E-001
Al  7.52035415E-001  1.26624519E-001  8.73712841E-001
Al  7.50032067E-001  2.48197694E-001  8.27921597E-004
Al  8.74991628E-001  3.74876334E-001  4.47199435E-005
Al  8.72834870E-001  2.49980659E-001  1.25206438E-001
Al  7.49648308E-001  3.76236693E-001  1.24874281E-001
Al  7.52453773E-001  2.48508062E-001  2.47523585E-001
Al  8.73317771E-001  3.76986020E-001  2.48186262E-001
Al  8.74801898E-001  2.49362932E-001  3.74718962E-001
Al  7.52434503E-001  3.73750986E-001  3.76582467E-001
Al  7.50471474E-001  2.51584826E-001  5.00227473E-001
Al  8.73154843E-001  3.76087961E-001  4.99549634E-001
Al  8.76714323E-001  2.50421165E-001  6.24749528E-001
Al  7.48224928E-001  3.74310999E-001  6.24933298E-001
Al  7.49640546E-001  2.49860299E-001  7.48485435E-001
Al  8.75695762E-001  3.76040410E-001  7.52284193E-001
Al  8.74893062E-001  2.48120786E-001  8.77405701E-001
Al  7.47522010E-001  3.75060109E-001  8.73140959E-001
Al  7.50212084E-001  5.02359506E-001  -1.37987110E-004
Al  8.74277680E-001  6.27465228E-001  -8.74923687E-004
Al  8.74488536E-001  4.97670163E-001  1.27057789E-001
Al  7.48412989E-001  6.27135432E-001  1.25374327E-001
Al  7.49784506E-001  5.00397967E-001  2.48266003E-001
Al  8.75717038E-001  6.25408498E-001  2.49744668E-001
Al  8.72782624E-001  5.00072821E-001  3.74276329E-001
Al  7.50091599E-001  6.27420813E-001  3.75051960E-001
Al  7.49981867E-001  4.98983874E-001  4.97541611E-001
Al  8.74848889E-001  6.24754918E-001  5.00008391E-001
Al  8.75037970E-001  4.99778502E-001  6.23394732E-001
Al  7.47881613E-001  6.24702821E-001  6.24142789E-001
Al  7.50008401E-001  5.00207868E-001  7.49991628E-001
Al  8.74961631E-001  6.22525390E-001  7.49942396E-001
Al  8.72836791E-001  5.00540747E-001  8.72657990E-001
Al  7.50074123E-001  6.23292832E-001  8.74149365E-001
Al  7.48873673E-001  7.49892651E-001  7.24455270E-004
Al  8.76201765E-001  8.75026919E-001  3.01177177E-004
Al  8.75460130E-001  7.47969313E-001  1.24690739E-001
Al  7.49937481E-001  8.74636172E-001  1.25173124E-001
Al  7.49904387E-001  7.50284443E-001  2.50038098E-001
Al  8.75008558E-001  8.74857524E-001  2.48569778E-001
Al  8.75027051E-001  7.49977463E-001  3.75027206E-001
Al  7.50035786E-001  8.72813685E-001  3.76029429E-001
Al  7.47860988E-001  7.50008946E-001  4.99833217E-001
Al  8.75608522E-001  8.76593726E-001  5.02391977E-001
Al  8.75227661E-001  7.49980813E-001  6.22521697E-001
Al  7.49141045E-001  8.73349793E-001  6.24782708E-001
Al  7.50022288E-001  7.49776971E-001  7.49591872E-001
Al  8.74500815E-001  8.74949733E-001  7.50354007E-001
Al  8.74980874E-001  7.48532524E-001  8.72899165E-001
Al  7.50052162E-001  8.73018504E-001  8.75030347E-001
K_POINTS automatic
2 2 2 1 1 1
