&CONTROL
restart_mode = 'from_scratch',
calculation = 'scf',
outdir = '/gpfs/bb/bxp912/scratch',
pseudo_dir = '/gpfs/bb/bxp912/pseudopotentials',
prefix = '3.00000000E-001',
etot_conv_thr = 1.00000000E-007,
forc_conv_thr = 1.00000000E-007,
nstep = 200,
tprnfor = .true.,
tstress = .true.,
disk_io = 'low',
/
&SYSTEM
ibrav = 14,
celldm(1) = 3.05001797E+001,
celldm(2) = 1.00000000E+000,
celldm(3) = 1.00000000E+000,
celldm(4) = 0.00000000E+000,
celldm(5) = 0.00000000E+000,
celldm(6) = 0.00000000E+000,
nat = 256,
ntyp = 1,
ecutwfc = 35,
ecutrho = 208,
occupations = 'smearing',
smearing = 'mv',
degauss = 5.00000007E-002,
/
&ELECTRONS
diagonalization = 'david',
mixing_mode = plain,
mixing_beta = 6.99999988E-001,
conv_thr = 1.00000000E-007,
/
&IONS
ion_dynamics = 'bfgs',
/
&CELL
cell_dynamics = 'bfgs',
press = 0.00000000E+000,
cell_factor = 2.00000000E+000,
/
ATOMIC_SPECIES
Al  2.69815390E+001  Al.pbe-n-kjpaw_psl.0.1.UPF
ATOMIC_POSITIONS crystal
Al  1.51182723E-003  1.77275593E-003  8.40476767E-005
Al  1.27115976E-001  1.24979872E-001  -2.49966931E-003
Al  1.25018511E-001  1.64496092E-003  1.24508773E-001
Al  2.14108685E-004  1.24434066E-001  1.27183904E-001
Al  1.81261874E-005  -1.28014371E-004  2.49991540E-001
Al  1.25702993E-001  1.26630644E-001  2.51863534E-001
Al  1.22639553E-001  2.41542936E-003  3.74158071E-001
Al  -1.72289353E-005  1.25852749E-001  3.74333038E-001
Al  -4.33978628E-004  -2.50843915E-004  5.00965252E-001
Al  1.22801775E-001  1.25008530E-001  5.01291065E-001
Al  1.25295214E-001  3.72393897E-004  6.25288056E-001
Al  -5.12239664E-004  1.24977639E-001  6.22833492E-001
Al  2.86195172E-004  4.25216391E-004  7.49092730E-001
Al  1.24913260E-001  1.24891384E-001  7.50524673E-001
Al  1.25815358E-001  -5.08616711E-004  8.75031289E-001
Al  -1.81215062E-005  1.25794234E-001  8.76514691E-001
Al  -2.48628420E-003  2.47986900E-001  -1.86982108E-003
Al  1.24910946E-001  3.74754429E-001  -1.64032285E-003
Al  1.25898662E-001  2.50075278E-001  1.24449182E-001
Al  2.45969179E-003  3.74991421E-001  1.27480824E-001
Al  -1.51932543E-003  2.50357076E-001  2.50602430E-001
Al  1.25697608E-001  3.74837095E-001  2.49837658E-001
Al  1.24297440E-001  2.50008814E-001  3.75165181E-001
Al  5.21915088E-005  3.74807914E-001  3.75835499E-001
Al  -8.47658417E-004  2.49441259E-001  4.99912030E-001
Al  1.27426280E-001  3.74164220E-001  5.00129192E-001
Al  1.24981669E-001  2.49068774E-001  6.23757383E-001
Al  1.71701339E-003  3.77431832E-001  6.24165243E-001
Al  1.97674030E-005  2.50539800E-001  7.49160292E-001
Al  1.26054504E-001  3.74562250E-001  7.50022877E-001
Al  1.25018985E-001  2.49138012E-001  8.76915219E-001
Al  2.90723575E-004  3.75008686E-001  8.72512241E-001
Al  3.88098429E-004  5.02371653E-001  -1.38342340E-003
Al  1.26637756E-001  6.25045114E-001  8.77214726E-005
Al  1.22757588E-001  5.00176463E-001  1.26599118E-001
Al  -1.88763450E-004  6.24990528E-001  1.22520096E-001
Al  -9.48071328E-006  4.99991017E-001  2.48173881E-001
Al  1.24950627E-001  6.24322269E-001  2.50257482E-001
Al  1.26637335E-001  5.00320552E-001  3.74725431E-001
Al  -1.17148160E-003  6.27497896E-001  3.76540688E-001
Al  1.09607115E-003  4.99154192E-001  5.00166490E-001
Al  1.24966909E-001  6.25279710E-001  5.00772359E-001
Al  1.25072085E-001  4.97625443E-001  6.25464489E-001
Al  1.50474547E-004  6.27497847E-001  6.25018662E-001
Al  -4.91488422E-004  5.00479484E-001  7.48200916E-001
Al  1.26851349E-001  6.25508480E-001  7.50181803E-001
Al  1.25169038E-001  5.00112894E-001  8.73625818E-001
Al  -7.49842453E-004  6.24971833E-001  8.76398389E-001
Al  2.54509328E-004  7.49600746E-001  1.25428534E-003
Al  1.23642980E-001  8.74178044E-001  2.50805118E-004
Al  1.23763976E-001  7.47686410E-001  1.25020219E-001
Al  2.49926650E-003  8.72590266E-001  1.23693985E-001
Al  -1.19635495E-003  7.50399124E-001  2.51630055E-001
Al  1.25347735E-001  8.74670432E-001  2.52446188E-001
Al  1.24756208E-001  7.50683913E-001  3.73671254E-001
Al  9.73440893E-004  8.73065039E-001  3.77497552E-001
Al  1.42116314E-004  7.47702432E-001  4.99894210E-001
Al  1.24955207E-001  8.76224933E-001  4.97500114E-001
Al  1.25018774E-001  7.48094538E-001  6.24901305E-001
Al  -1.32858942E-003  8.76389694E-001  6.24938084E-001
Al  5.92940302E-005  7.49758755E-001  7.48361815E-001
Al  1.22735732E-001  8.75051394E-001  7.48837212E-001
Al  1.25361071E-001  7.50837004E-001  8.74660791E-001
Al  4.03296798E-004  8.74991350E-001  8.74509017E-001
Al  2.49951553E-001  2.49966970E-003  1.98047251E-005
Al  3.74936029E-001  1.26070571E-001  -3.57560741E-004
Al  3.74981869E-001  -2.32416650E-004  1.24901855E-001
Al  2.50546305E-001  1.25096935E-001  1.25018116E-001
Al  2.49952417E-001  8.95582108E-006  2.49803872E-001
Al  3.75027142E-001  1.23887594E-001  2.49265698E-001
Al  3.77241171E-001  1.94017222E-003  3.73077843E-001
Al  2.49991474E-001  1.25125247E-001  3.77188883E-001
Al  2.52316276E-001  1.47238748E-003  4.99980388E-001
Al  3.73420406E-001  1.25388662E-001  5.00008648E-001
Al  3.75702137E-001  2.16250191E-003  6.24990540E-001
Al  2.50108347E-001  1.25008717E-001  6.25670816E-001
Al  2.48202087E-001  -5.84424040E-004  7.47633361E-001
Al  3.74982086E-001  1.24257079E-001  7.48132232E-001
Al  3.74472815E-001  -1.66917976E-003  8.72951091E-001
Al  2.49268146E-001  1.25033950E-001  8.75860380E-001
Al  2.50018113E-001  2.48844890E-001  -2.01643457E-003
Al  3.75900963E-001  3.74580286E-001  8.69177539E-006
Al  3.75054683E-001  2.49965861E-001  1.24436463E-001
Al  2.50018464E-001  3.76434523E-001  1.22514573E-001
Al  2.48617309E-001  2.50073896E-001  2.47629978E-001
Al  3.72825476E-001  3.75031828E-001  2.51753128E-001
Al  3.74496945E-001  2.50288500E-001  3.73714931E-001
Al  2.49979153E-001  3.74990815E-001  3.76677406E-001
Al  2.48756451E-001  2.49990567E-001  4.99005910E-001
Al  3.75840674E-001  3.74954932E-001  4.98463647E-001
Al  3.76865887E-001  2.49443156E-001  6.25017539E-001
Al  2.52428293E-001  3.74991139E-001  6.25223572E-001
Al  2.47806093E-001  2.48573822E-001  7.50056771E-001
Al  3.74663249E-001  3.72500793E-001  7.52477976E-001
Al  3.74038080E-001  2.49833759E-001  8.75019530E-001
Al  2.50441849E-001  3.74981050E-001  8.74976318E-001
Al  2.52460914E-001  5.01895725E-001  3.88585046E-004
Al  3.74978173E-001  6.27312798E-001  -3.04914059E-004
Al  3.77436330E-001  4.99652276E-001  1.25008376E-001
Al  2.48949008E-001  6.27487495E-001  1.26162845E-001
Al  2.50408816E-001  4.99976752E-001  2.49957925E-001
Al  3.73622254E-001  6.25138387E-001  2.50582368E-001
Al  3.76245495E-001  5.00018115E-001  3.74815109E-001
Al  2.49962403E-001  6.22661431E-001  3.73528083E-001
Al  2.48415059E-001  5.02489616E-001  5.00209964E-001
Al  3.72555021E-001  6.27437885E-001  4.99763356E-001
Al  3.77491226E-001  5.01397341E-001  6.22575254E-001
Al  2.50065599E-001  6.24708478E-001  6.26101940E-001
Al  2.47521605E-001  5.00018393E-001  7.48024602E-001
Al  3.74151451E-001  6.23124148E-001  7.49011193E-001
Al  3.73393398E-001  5.01610452E-001  8.75434674E-001
Al  2.50696332E-001  6.27489521E-001  8.74973828E-001
Al  2.50093089E-001  7.50018212E-001  -2.05516936E-003
Al  3.75030967E-001  8.74106778E-001  -7.70793670E-004
Al  3.74981831E-001  7.49875414E-001  1.24991384E-001
Al  2.50281920E-001  8.77460744E-001  1.24162290E-001
Al  2.47541701E-001  7.51437694E-001  2.51205990E-001
Al  3.75164774E-001  8.74353764E-001  2.49971608E-001
Al  3.74929500E-001  7.48258402E-001  3.75304753E-001
Al  2.50018077E-001  8.74682933E-001  3.75970373E-001
Al  2.50009231E-001  7.50104541E-001  4.99856069E-001
Al  3.74318837E-001  8.72883642E-001  4.98697614E-001
Al  3.73894312E-001  7.49713421E-001  6.25369462E-001
Al  2.49632172E-001  8.76238845E-001  6.26570055E-001
Al  2.50691613E-001  7.49981058E-001  7.50149084E-001
Al  3.73189669E-001  8.77047396E-001  7.48503865E-001
Al  3.74976980E-001  7.49632942E-001  8.75064951E-001
Al  2.49816457E-001  8.74096092E-001  8.73456849E-001
Al  5.00312061E-001  1.41539862E-003  -8.74434891E-006
Al  6.24869496E-001  1.25472573E-001  -2.46974745E-003
Al  6.23622586E-001  -1.12755564E-004  1.24660284E-001
Al  4.99870451E-001  1.25916775E-001  1.24991015E-001
Al  4.99991576E-001  4.16420523E-004  2.51683924E-001
Al  6.22761918E-001  1.25008416E-001  2.50114704E-001
Al  6.25053255E-001  -8.60411074E-006  3.77393931E-001
Al  5.01493818E-001  1.25652680E-001  3.73603553E-001
Al  4.99852013E-001  -4.38407094E-004  4.97878054E-001
Al  6.24981832E-001  1.24418972E-001  5.01722977E-001
Al  6.24819997E-001  -6.40483223E-004  6.23096557E-001
Al  4.99494581E-001  1.25225844E-001  6.24815304E-001
Al  5.02376071E-001  -2.83881249E-004  7.50277983E-001
Al  6.22581655E-001  1.26708072E-001  7.50999346E-001
Al  6.24766573E-001  4.42774700E-004  8.76614340E-001
Al  4.98424978E-001  1.26655465E-001  8.75018710E-001
Al  5.01283183E-001  2.50116356E-001  2.21591666E-003
Al  6.25008388E-001  3.76139628E-001  -2.77756439E-005
Al  6.25323078E-001  2.50133572E-001  1.25084890E-001
Al  4.99991518E-001  3.75102099E-001  1.26009744E-001
Al  5.00020235E-001  2.49963826E-001  2.50215814E-001
Al  6.22891932E-001  3.73530560E-001  2.49485187E-001
Al  6.24932869E-001  2.50364127E-001  3.75333641E-001
Al  4.99801031E-001  3.73360573E-001  3.73743786E-001
Al  5.00009086E-001  2.50029595E-001  4.99196998E-001
Al  6.26713557E-001  3.76997712E-001  4.98401429E-001
Al  6.25018052E-001  2.49991326E-001  6.23604000E-001
Al  4.99790187E-001  3.72715482E-001  6.23707805E-001
Al  5.02068029E-001  2.50104340E-001  7.52392086E-001
Al  6.25852174E-001  3.77425605E-001  7.50020127E-001
Al  6.25352630E-001  2.50008559E-001  8.74973709E-001
Al  5.00024594E-001  3.75048895E-001  8.73136532E-001
Al  5.00302751E-001  5.01679624E-001  -1.51757624E-004
Al  6.23422934E-001  6.25163512E-001  4.52246421E-004
Al  6.24756643E-001  5.02250400E-001  1.27468884E-001
Al  4.99980148E-001  6.25094502E-001  1.26472466E-001
Al  4.99965701E-001  4.99981856E-001  2.49156631E-001
Al  6.25194031E-001  6.27229874E-001  2.52192450E-001
Al  6.25578163E-001  4.99937756E-001  3.72611229E-001
Al  4.99361088E-001  6.25251367E-001  3.76918187E-001
Al  5.01157386E-001  4.99938265E-001  5.00193072E-001
Al  6.22725169E-001  6.24945763E-001  4.99977839E-001
Al  6.27368067E-001  5.02422182E-001  6.25042097E-001
Al  5.00018794E-001  6.25042632E-001  6.24991615E-001
Al  5.01704645E-001  4.98022719E-001  7.49102102E-001
Al  6.25159151E-001  6.25389337E-001  7.49950965E-001
Al  6.24789637E-001  4.99974589E-001  8.74648098E-001
Al  4.97718999E-001  6.23694482E-001  8.75008628E-001
Al  4.97996841E-001  7.50079750E-001  7.94091820E-004
Al  6.24952621E-001  8.74894334E-001  1.00463538E-003
Al  6.25542311E-001  7.47659062E-001  1.26645562E-001
Al  4.98415039E-001  8.76817266E-001  1.24467052E-001
Al  4.99123480E-001  7.50068406E-001  2.52409564E-001
Al  6.26016221E-001  8.74246463E-001  2.47732748E-001
Al  6.24981359E-001  7.51064118E-001  3.76457231E-001
Al  4.99861936E-001  8.75059120E-001  3.76038185E-001
Al  5.00074739E-001  7.47501042E-001  5.00157268E-001
Al  6.24981330E-001  8.76917370E-001  5.01065913E-001
Al  6.22897301E-001  7.50490002E-001  6.24694707E-001
Al  4.99519393E-001  8.74904062E-001  6.26471982E-001
Al  4.99982472E-001  7.51176227E-001  7.52458334E-001
Al  6.26115330E-001  8.77005040E-001  7.50018268E-001
Al  6.24764939E-001  7.49963722E-001  8.75103655E-001
Al  4.98373727E-001  8.74181623E-001  8.75235785E-001
Al  7.50409422E-001  8.41065598E-004  -1.11939099E-003
Al  8.75008420E-001  1.25782394E-001  7.98232721E-004
Al  8.73360225E-001  -2.48293426E-003  1.27125644E-001
Al  7.49496101E-001  1.25674367E-001  1.22982867E-001
Al  7.49605578E-001  -1.12866069E-003  2.47526307E-001
Al  8.76237916E-001  1.27445288E-001  2.50026259E-001
Al  8.74250556E-001  2.91924729E-004  3.75776559E-001
Al  7.52157442E-001  1.25545695E-001  3.75041551E-001
Al  7.50039224E-001  -2.07829757E-004  4.99571008E-001
Al  8.74981380E-001  1.22795749E-001  4.97668589E-001
Al  8.72743175E-001  1.86639547E-004  6.25277699E-001
Al  7.50538440E-001  1.24082309E-001  6.24991418E-001
Al  7.49849574E-001  2.22093002E-005  7.50019264E-001
Al  8.75019422E-001  1.26733107E-001  7.50008612E-001
Al  8.72509399E-001  1.05247057E-003  8.75410365E-001
Al  7.50008402E-001  1.24641256E-001  8.74990209E-001
Al  7.47777875E-001  2.47927329E-001  -1.28587567E-003
Al  8.72934256E-001  3.74991189E-001  -2.62349005E-005
Al  8.74958779E-001  2.49921769E-001  1.24015739E-001
Al  7.52368228E-001  3.74981689E-001  1.26072923E-001
Al  7.49963512E-001  2.49517622E-001  2.48950510E-001
Al  8.74141968E-001  3.75112635E-001  2.48446123E-001
Al  8.75008745E-001  2.50836502E-001  3.75580034E-001
Al  7.49991474E-001  3.75018840E-001  3.76542477E-001
Al  7.48811146E-001  2.49849081E-001  4.98588051E-001
Al  8.73260071E-001  3.74716339E-001  5.00018747E-001
Al  8.73624382E-001  2.49245863E-001  6.24772832E-001
Al  7.49617420E-001  3.74912667E-001  6.25063323E-001
Al  7.49978836E-001  2.47774367E-001  7.47686587E-001
Al  8.75599035E-001  3.77499809E-001  7.52249891E-001
Al  8.72707217E-001  2.48664605E-001  8.76005404E-001
Al  7.48472969E-001  3.73938056E-001  8.75995109E-001
Al  7.50461717E-001  5.00065667E-001  -2.31800770E-003
Al  8.76189438E-001  6.25008534E-001  1.71592342E-003
Al  8.75018831E-001  5.00084408E-001  1.25127836E-001
Al  7.48056313E-001  6.26843812E-001  1.23837394E-001
Al  7.49991610E-001  5.00022708E-001  2.50184842E-001
Al  8.72730187E-001  6.27495234E-001  2.49747923E-001
Al  8.74824953E-001  4.99959537E-001  3.75169507E-001
Al  7.50077393E-001  6.25009064E-001  3.74415685E-001
Al  7.50044249E-001  4.97550116E-001  5.00008377E-001
Al  8.73745099E-001  6.23927111E-001  5.01589933E-001
Al  8.75948321E-001  5.00446796E-001  6.27301035E-001
Al  7.49778167E-001  6.24802934E-001  6.24935082E-001
Al  7.50008404E-001  5.02226673E-001  7.48496364E-001
Al  8.74939673E-001  6.24739083E-001  7.50962706E-001
Al  8.76844875E-001  5.01953505E-001  8.74852269E-001
Al  7.52230041E-001  6.22598712E-001  8.75814126E-001
Al  7.49973803E-001  7.51310132E-001  -1.04431256E-003
Al  8.75245702E-001  8.74931122E-001  2.25825977E-003
Al  8.75078398E-001  7.48667914E-001  1.22500051E-001
Al  7.49212864E-001  8.74375608E-001  1.25008554E-001
Al  7.47576826E-001  7.49822232E-001  2.47568882E-001
Al  8.76811589E-001  8.74823200E-001  2.47674892E-001
Al  8.73755377E-001  7.52141387E-001  3.73294840E-001
Al  7.47846247E-001  8.77325193E-001  3.74544938E-001
Al  7.50122808E-001  7.52117272E-001  4.98664948E-001
Al  8.74672345E-001  8.73797630E-001  5.00575907E-001
Al  8.75118672E-001  7.49991174E-001  6.22500251E-001
Al  7.49831854E-001  8.74059428E-001  6.24968048E-001
Al  7.49083213E-001  7.49391791E-001  7.49457024E-001
Al  8.73048078E-001  8.74976102E-001  7.49757945E-001
Al  8.75008793E-001  7.48586655E-001  8.75618756E-001
Al  7.51900760E-001  8.75020108E-001  8.75316378E-001
K_POINTS automatic
2 2 2 1 1 1
