&CONTROL
restart_mode = 'from_scratch',
calculation = 'scf',
outdir = '/gpfs/bb/bxp912/scratch',
pseudo_dir = '/gpfs/bb/bxp912/pseudopotentials',
prefix = '1.44000000E-001',
etot_conv_thr = 1.00000000E-007,
forc_conv_thr = 1.00000000E-007,
nstep = 200,
tprnfor = .true.,
tstress = .true.,
disk_io = 'low',
/
&SYSTEM
ibrav = 14,
celldm(1) = 8.07000000E+000,
celldm(2) = 1.00000000E+000,
celldm(3) = 1.00000000E+000,
celldm(4) = 0.00000000E+000,
celldm(5) = 0.00000000E+000,
celldm(6) = 0.00000000E+000,
nat = 32,
ntyp = 1,
ecutwfc = 35,
ecutrho = 208,
occupations = 'smearing',
smearing = 'mv',
degauss = 5.00000007E-002,
/
&ELECTRONS
diagonalization = 'david',
mixing_mode = plain,
mixing_beta = 6.99999988E-001,
conv_thr = 1.00000000E-007,
/
&IONS
ion_dynamics = 'bfgs',
/
&CELL
cell_dynamics = 'bfgs',
press = 0.00000000E+000,
cell_factor = 2.00000000E+000,
/
ATOMIC_SPECIES
Al  2.69815390E+001  Al.pbe-n-kjpaw_psl.0.1.UPF
ATOMIC_POSITIONS crystal
Al  2.28485330E-003  -1.34176802E-003  4.05346252E-003
Al  2.52997158E-001  2.49908978E-001  8.19378003E-004
Al  2.49904911E-001  3.60924249E-003  2.49320816E-001
Al  -1.13902694E-004  2.50269032E-001  2.53603551E-001
Al  4.01105231E-005  -1.87900784E-003  4.98261884E-001
Al  2.47098634E-001  2.49963766E-001  5.00016982E-001
Al  2.48854076E-001  -4.98380565E-003  7.45155047E-001
Al  6.25750758E-005  2.50548235E-001  7.48440303E-001
Al  4.98783107E-003  4.95025780E-001  -4.88418003E-003
Al  2.50037385E-001  7.49982499E-001  4.00297187E-003
Al  2.48951670E-001  4.99757535E-001  2.54148810E-001
Al  4.98368078E-003  7.51839340E-001  2.50036340E-001
Al  -4.05736544E-003  4.99481854E-001  4.95779235E-001
Al  2.54182995E-001  7.45048046E-001  4.98496734E-001
Al  2.53544480E-001  4.95059205E-001  7.49904782E-001
Al  7.66376706E-005  7.49358954E-001  7.50815935E-001
Al  4.99802613E-001  1.58768961E-003  -5.17045796E-004
Al  7.53079244E-001  2.46513913E-001  -3.39619159E-003
Al  7.50261484E-001  6.27695433E-004  2.45437390E-001
Al  4.99962247E-001  2.50037564E-001  2.49897229E-001
Al  5.04724866E-001  9.07038140E-004  4.95991427E-001
Al  7.54450450E-001  2.45963494E-001  4.95028470E-001
Al  7.50084307E-001  -4.46463016E-003  7.50113217E-001
Al  5.01540917E-001  2.47345982E-001  7.50306333E-001
Al  5.03265683E-001  5.00018663E-001  3.52841356E-004
Al  7.52817522E-001  7.53275008E-001  -1.88125746E-005
Al  7.48393003E-001  5.00460241E-001  2.45001572E-001
Al  5.01016513E-001  7.50372407E-001  2.54995982E-001
Al  4.96575873E-001  4.96532543E-001  5.01651486E-001
Al  7.48779307E-001  7.47876063E-001  4.99554305E-001
Al  7.49578427E-001  5.00142712E-001  7.50016744E-001
Al  5.03904019E-001  7.50804485E-001  7.50298305E-001
K_POINTS automatic
2 2 2 1 1 1
