&CONTROL
restart_mode = 'from_scratch',
calculation = 'scf',
outdir = '/gpfs/bb/bxp912/scratch',
pseudo_dir = '/gpfs/bb/bxp912/pseudopotentials',
prefix = '1.44000000E-001',
etot_conv_thr = 1.00000000E-007,
forc_conv_thr = 1.00000000E-007,
nstep = 200,
tprnfor = .true.,
tstress = .true.,
disk_io = 'low',
/
&SYSTEM
ibrav = 14,
celldm(1) = 8.07000000E+000,
celldm(2) = 1.00000000E+000,
celldm(3) = 1.00000000E+000,
celldm(4) = 0.00000000E+000,
celldm(5) = 0.00000000E+000,
celldm(6) = 0.00000000E+000,
nat = 32,
ntyp = 1,
ecutwfc = 35,
ecutrho = 208,
occupations = 'smearing',
smearing = 'mv',
degauss = 5.00000007E-002,
/
&ELECTRONS
diagonalization = 'david',
mixing_mode = plain,
mixing_beta = 6.99999988E-001,
conv_thr = 1.00000000E-007,
/
&IONS
ion_dynamics = 'bfgs',
/
&CELL
cell_dynamics = 'bfgs',
press = 0.00000000E+000,
cell_factor = 2.00000000E+000,
/
ATOMIC_SPECIES
Al  2.69815390E+001  Al.pbe-n-kjpaw_psl.0.1.UPF
ATOMIC_POSITIONS crystal
Al  1.41253336E-003  -1.67437429E-005  9.38421885E-004
Al  2.50378982E-001  2.53807520E-001  9.56615163E-004
Al  2.45497593E-001  -4.75942079E-004  2.49573484E-001
Al  -2.84508150E-003  2.52743676E-001  2.47128222E-001
Al  -2.40868128E-003  3.72258475E-003  5.01982922E-001
Al  2.45088238E-001  2.48932613E-001  5.00036241E-001
Al  2.48448630E-001  -2.68908962E-004  7.54996388E-001
Al  2.27685702E-004  2.51596771E-001  7.49499176E-001
Al  -1.19420166E-004  5.04705133E-001  -4.97407157E-003
Al  2.48972800E-001  7.49962885E-001  9.03961610E-004
Al  2.48584573E-001  5.04281300E-001  2.49983094E-001
Al  2.26049400E-004  7.53564495E-001  2.45008656E-001
Al  4.25957868E-003  4.98482415E-001  4.95001391E-001
Al  2.47887996E-001  7.48674757E-001  4.99926941E-001
Al  2.47622542E-001  5.00225211E-001  7.45247342E-001
Al  -3.97150799E-003  7.54707626E-001  7.49582241E-001
Al  5.04663802E-001  -2.16296930E-003  1.89126796E-003
Al  7.50211890E-001  2.49983255E-001  -3.17225273E-004
Al  7.50017145E-001  -7.68936941E-005  2.46253140E-001
Al  5.00036709E-001  2.54995728E-001  2.54986934E-001
Al  4.99276619E-001  2.19504369E-003  4.99748934E-001
Al  7.51530263E-001  2.49935627E-001  5.01759516E-001
Al  7.45472670E-001  1.68528506E-005  7.45654739E-001
Al  5.00016741E-001  2.49491430E-001  7.49933714E-001
Al  4.99686802E-001  4.99983260E-001  -2.50086260E-004
Al  7.50055097E-001  7.50241832E-001  3.27735393E-003
Al  7.49960938E-001  4.99917190E-001  2.48303318E-001
Al  4.95879502E-001  7.53758972E-001  2.45102625E-001
Al  5.00339060E-001  5.03022843E-001  5.00044096E-001
Al  7.49963703E-001  7.50637120E-001  4.99907673E-001
Al  7.45010364E-001  4.98599727E-001  7.50016772E-001
Al  5.00038721E-001  7.50548924E-001  7.45446222E-001
K_POINTS automatic
2 2 2 1 1 1
