&CONTROL
restart_mode = 'from_scratch',
calculation = 'scf',
outdir = '/gpfs/bb/bxp912/scratch',
pseudo_dir = '/gpfs/bb/bxp912/pseudopotentials',
prefix = '1.44000000E-001',
etot_conv_thr = 1.00000000E-007,
forc_conv_thr = 1.00000000E-007,
nstep = 200,
tprnfor = .true.,
tstress = .true.,
disk_io = 'low',
/
&SYSTEM
ibrav = 14,
celldm(1) = 8.07000000E+000,
celldm(2) = 1.00000000E+000,
celldm(3) = 1.00000000E+000,
celldm(4) = 0.00000000E+000,
celldm(5) = 0.00000000E+000,
celldm(6) = 0.00000000E+000,
nat = 32,
ntyp = 1,
ecutwfc = 35,
ecutrho = 208,
occupations = 'smearing',
smearing = 'mv',
degauss = 5.00000007E-002,
/
&ELECTRONS
diagonalization = 'david',
mixing_mode = plain,
mixing_beta = 6.99999988E-001,
conv_thr = 1.00000000E-007,
/
&IONS
ion_dynamics = 'bfgs',
/
&CELL
cell_dynamics = 'bfgs',
press = 0.00000000E+000,
cell_factor = 2.00000000E+000,
/
ATOMIC_SPECIES
Al  2.69815390E+001  Al.pbe-n-kjpaw_psl.0.1.UPF
ATOMIC_POSITIONS crystal
Al  2.34996738E-003  -7.46740901E-004  5.89406988E-004
Al  2.50017411E-001  2.45524708E-001  -6.55417144E-004
Al  2.49921702E-001  4.98564444E-003  2.52199358E-001
Al  4.70698633E-003  2.52312938E-001  2.49983066E-001
Al  2.69948204E-003  -1.73351322E-004  4.99374242E-001
Al  2.50038197E-001  2.53767765E-001  5.00828676E-001
Al  2.50106909E-001  4.17647147E-003  7.53039867E-001
Al  -4.56058903E-003  2.53624252E-001  7.46541619E-001
Al  1.84407202E-003  4.97431988E-001  1.46716729E-003
Al  2.49923041E-001  7.49942086E-001  -9.72299689E-004
Al  2.47253759E-001  5.01034836E-001  2.49487151E-001
Al  -2.07657924E-003  7.46585839E-001  2.54464892E-001
Al  4.06338369E-004  5.00750955E-001  5.00249477E-001
Al  2.50220382E-001  7.52483892E-001  5.00539148E-001
Al  2.49796401E-001  5.01363894E-001  7.49451960E-001
Al  5.24104847E-005  7.47415200E-001  7.50435359E-001
Al  5.04933260E-001  -4.63858939E-003  4.76595465E-003
Al  7.50202281E-001  2.50527125E-001  -3.76455070E-005
Al  7.50041009E-001  4.98101475E-003  2.49947357E-001
Al  4.95506797E-001  2.47808266E-001  2.47971401E-001
Al  5.03918933E-001  4.84079489E-004  5.00035753E-001
Al  7.50948133E-001  2.46459750E-001  5.00265544E-001
Al  7.54128689E-001  6.30637059E-005  7.54362970E-001
Al  4.98044153E-001  2.50418658E-001  7.50073822E-001
Al  4.98163053E-001  4.96688016E-001  1.03179701E-004
Al  7.51400258E-001  7.52922852E-001  -6.62606804E-004
Al  7.47556113E-001  5.00040396E-001  2.49875934E-001
Al  4.97144765E-001  7.54643356E-001  2.49792914E-001
Al  5.01422912E-001  5.01390310E-001  4.99724377E-001
Al  7.50496289E-001  7.45360037E-001  4.98819872E-001
Al  7.49817494E-001  4.99952850E-001  7.49963762E-001
Al  4.99959696E-001  7.54998872E-001  7.50075871E-001
K_POINTS automatic
2 2 2 1 1 1
