&CONTROL
restart_mode = 'from_scratch',
calculation = 'scf',
outdir = '/gpfs/bb/bxp912/scratch',
pseudo_dir = '/gpfs/bb/bxp912/pseudopotentials',
prefix = '1.44000000E-001',
etot_conv_thr = 1.00000000E-007,
forc_conv_thr = 1.00000000E-007,
nstep = 200,
tprnfor = .true.,
tstress = .true.,
disk_io = 'low',
/
&SYSTEM
ibrav = 14,
celldm(1) = 8.07000000E+000,
celldm(2) = 1.00000000E+000,
celldm(3) = 1.00000000E+000,
celldm(4) = 0.00000000E+000,
celldm(5) = 0.00000000E+000,
celldm(6) = 0.00000000E+000,
nat = 32,
ntyp = 1,
ecutwfc = 35,
ecutrho = 208,
occupations = 'smearing',
smearing = 'mv',
degauss = 5.00000007E-002,
/
&ELECTRONS
diagonalization = 'david',
mixing_mode = plain,
mixing_beta = 6.99999988E-001,
conv_thr = 1.00000000E-007,
/
&IONS
ion_dynamics = 'bfgs',
/
&CELL
cell_dynamics = 'bfgs',
press = 0.00000000E+000,
cell_factor = 2.00000000E+000,
/
ATOMIC_SPECIES
Al  2.69815390E+001  Al.pbe-n-kjpaw_psl.0.1.UPF
ATOMIC_POSITIONS crystal
Al  4.63061979E-003  -3.06750879E-003  3.80619105E-003
Al  2.52972926E-001  2.52890162E-001  1.85056278E-003
Al  2.50017813E-001  4.57166063E-003  2.49983258E-001
Al  -7.49509293E-005  2.49910935E-001  2.50017087E-001
Al  -3.79886649E-005  -3.83918048E-003  4.99937369E-001
Al  2.46800305E-001  2.50038617E-001  4.98687562E-001
Al  2.51792726E-001  -1.40614981E-003  7.49705738E-001
Al  -9.59957562E-005  2.49963018E-001  7.50199268E-001
Al  -4.12623036E-003  5.00066287E-001  -1.95852119E-004
Al  2.46370226E-001  7.49981921E-001  -1.13927539E-003
Al  2.50046162E-001  4.99962314E-001  2.48802088E-001
Al  -1.51126350E-004  7.50105088E-001  2.51212633E-001
Al  2.49343797E-003  4.95029677E-001  4.99334604E-001
Al  2.50181071E-001  7.53164114E-001  4.99961885E-001
Al  2.48725597E-001  4.96849304E-001  7.49675706E-001
Al  3.42292206E-005  7.46276840E-001  7.46196113E-001
Al  4.97712953E-001  -1.37879177E-004  4.99842479E-003
Al  7.50082328E-001  2.49830609E-001  1.70193875E-005
Al  7.50645673E-001  -3.53418252E-003  2.52119394E-001
Al  4.99188184E-001  2.49921937E-001  2.50289654E-001
Al  5.00050784E-001  9.39273610E-004  5.01941729E-001
Al  7.49860707E-001  2.47367014E-001  4.99517396E-001
Al  7.50039858E-001  -1.88942237E-003  7.49983241E-001
Al  4.95306464E-001  2.49963785E-001  7.50018042E-001
Al  5.00016748E-001  5.04945718E-001  -4.53555898E-004
Al  7.50018222E-001  7.50058297E-001  -1.31794625E-004
Al  7.50037767E-001  5.00137089E-001  2.50899847E-001
Al  5.00154211E-001  7.47882747E-001  2.50453045E-001
Al  4.99747486E-001  5.04445902E-001  4.95823594E-001
Al  7.54893800E-001  7.45013713E-001  5.00435015E-001
Al  7.51365431E-001  5.00036424E-001  7.50872830E-001
Al  5.00361239E-001  7.50091942E-001  7.49840332E-001
K_POINTS automatic
2 2 2 1 1 1
