&CONTROL
restart_mode = 'from_scratch',
calculation = 'scf',
outdir = '/gpfs/bb/bxp912/scratch',
pseudo_dir = '/gpfs/bb/bxp912/pseudopotentials',
prefix = '3.00000000E-001',
etot_conv_thr = 1.00000000E-007,
forc_conv_thr = 1.00000000E-007,
nstep = 200,
tprnfor = .true.,
tstress = .true.,
disk_io = 'low',
/
&SYSTEM
ibrav = 14,
celldm(1) = 3.05001797E+001,
celldm(2) = 1.00000000E+000,
celldm(3) = 1.00000000E+000,
celldm(4) = 0.00000000E+000,
celldm(5) = 0.00000000E+000,
celldm(6) = 0.00000000E+000,
nat = 256,
ntyp = 1,
ecutwfc = 35,
ecutrho = 208,
occupations = 'smearing',
smearing = 'mv',
degauss = 5.00000007E-002,
/
&ELECTRONS
diagonalization = 'david',
mixing_mode = plain,
mixing_beta = 6.99999988E-001,
conv_thr = 1.00000000E-007,
/
&IONS
ion_dynamics = 'bfgs',
/
&CELL
cell_dynamics = 'bfgs',
press = 0.00000000E+000,
cell_factor = 2.00000000E+000,
/
ATOMIC_SPECIES
Al  2.69815390E+001  Al.pbe-n-kjpaw_psl.0.1.UPF
ATOMIC_POSITIONS crystal
Al  5.16143730E-004  5.29684575E-004  1.34775587E-003
Al  1.27039434E-001  1.25008451E-001  -5.04305835E-004
Al  1.25073213E-001  1.42242643E-003  1.27218688E-001
Al  -4.90091793E-005  1.23930725E-001  1.25644542E-001
Al  9.43786298E-004  -2.28632289E-005  2.50051618E-001
Al  1.23506633E-001  1.25848694E-001  2.50867155E-001
Al  1.24748182E-001  1.94883186E-003  3.74950182E-001
Al  -4.94778159E-005  1.23187917E-001  3.74962223E-001
Al  1.09631397E-004  -2.23082576E-003  4.99979423E-001
Al  1.24796133E-001  1.24888875E-001  5.01164749E-001
Al  1.23528059E-001  2.08771464E-003  6.26559722E-001
Al  -1.16193899E-004  1.25546480E-001  6.25332334E-001
Al  -1.72652847E-003  1.69455352E-004  7.48424860E-001
Al  1.24119227E-001  1.23990453E-001  7.49991626E-001
Al  1.23406896E-001  -2.00366167E-003  8.72629256E-001
Al  -2.06282886E-003  1.25191381E-001  8.75813030E-001
Al  1.39789818E-004  2.49778998E-001  2.49521408E-003
Al  1.23009420E-001  3.74990903E-001  -2.73453738E-005
Al  1.25288892E-001  2.47562223E-001  1.25008568E-001
Al  -1.47915240E-003  3.74656736E-001  1.24974563E-001
Al  -4.76521282E-005  2.50433906E-001  2.52061915E-001
Al  1.24065467E-001  3.75240389E-001  2.52012474E-001
Al  1.25453355E-001  2.52368362E-001  3.73268013E-001
Al  -2.20752806E-003  3.74991614E-001  3.77473187E-001
Al  9.21345862E-005  2.50686996E-001  4.97702126E-001
Al  1.23049743E-001  3.74904487E-001  4.97989004E-001
Al  1.24981732E-001  2.50172311E-001  6.24956927E-001
Al  1.02966705E-003  3.77266982E-001  6.25587377E-001
Al  -7.68635347E-004  2.48075438E-001  7.50031617E-001
Al  1.25719053E-001  3.77011591E-001  7.48329982E-001
Al  1.22849326E-001  2.50151920E-001  8.77490195E-001
Al  -1.08793534E-003  3.75307781E-001  8.74276894E-001
Al  -1.93176038E-003  5.02182515E-001  -1.39245602E-003
Al  1.25216918E-001  6.24958023E-001  8.55582225E-006
Al  1.24929089E-001  5.00804519E-001  1.25070543E-001
Al  8.04342112E-004  6.26114532E-001  1.26084821E-001
Al  -3.52097377E-005  4.99980090E-001  2.47604879E-001
Al  1.25081049E-001  6.24884641E-001  2.49788450E-001
Al  1.23035478E-001  4.99943558E-001  3.72829446E-001
Al  2.33562080E-003  6.22984835E-001  3.74819125E-001
Al  -1.50867531E-003  4.99773211E-001  4.97500976E-001
Al  1.23413905E-001  6.22579356E-001  4.99843386E-001
Al  1.24163929E-001  5.00612679E-001  6.25082746E-001
Al  -2.85130498E-004  6.25765695E-001  6.24981574E-001
Al  -2.43943397E-004  5.01031816E-001  7.49954825E-001
Al  1.26973441E-001  6.25047891E-001  7.49967368E-001
Al  1.23815942E-001  5.00126773E-001  8.74991549E-001
Al  -1.87427633E-003  6.24991359E-001  8.72875399E-001
Al  1.11076262E-003  7.50526933E-001  -6.83744053E-005
Al  1.25873736E-001  8.75008435E-001  -3.89219534E-005
Al  1.24810237E-001  7.50262930E-001  1.23045625E-001
Al  2.97818435E-004  8.72503131E-001  1.24991517E-001
Al  -1.83263317E-005  7.50018727E-001  2.48778412E-001
Al  1.26545145E-001  8.74897518E-001  2.49981553E-001
Al  1.26338774E-001  7.49963571E-001  3.74879740E-001
Al  -1.08978893E-003  8.74068871E-001  3.74990551E-001
Al  1.89425650E-004  7.49975540E-001  5.00018988E-001
Al  1.23885419E-001  8.77295250E-001  4.97509725E-001
Al  1.23667971E-001  7.47575384E-001  6.27130930E-001
Al  3.76301898E-004  8.74946586E-001  6.27034986E-001
Al  -1.80331857E-003  7.47980906E-001  7.52160618E-001
Al  1.25008379E-001  8.75032828E-001  7.49573607E-001
Al  1.25028173E-001  7.47641960E-001  8.74981051E-001
Al  2.44450681E-003  8.75074743E-001  8.75180962E-001
Al  2.51873120E-001  8.66697470E-006  -2.79118121E-005
Al  3.74554665E-001  1.24750171E-001  -1.07668089E-003
Al  3.76656723E-001  2.72867905E-005  1.24583323E-001
Al  2.48170577E-001  1.25056937E-001  1.25018843E-001
Al  2.52379774E-001  2.23812833E-003  2.50008404E-001
Al  3.74599224E-001  1.23416964E-001  2.52463711E-001
Al  3.72747447E-001  1.77510647E-003  3.75097184E-001
Al  2.49894717E-001  1.24608221E-001  3.77498610E-001
Al  2.49777756E-001  -1.54044462E-003  4.97549066E-001
Al  3.77402553E-001  1.27333757E-001  4.99776852E-001
Al  3.72971452E-001  -5.98759275E-005  6.27499972E-001
Al  2.49798254E-001  1.24954821E-001  6.24583132E-001
Al  2.52191298E-001  -3.62706996E-005  7.50536192E-001
Al  3.76486760E-001  1.24991425E-001  7.47951790E-001
Al  3.72544886E-001  2.30668634E-003  8.75596093E-001
Al  2.49752196E-001  1.25056778E-001  8.76793229E-001
Al  2.51276499E-001  2.50029371E-001  -1.03673860E-003
Al  3.76583064E-001  3.75346337E-001  2.23467666E-005
Al  3.73855013E-001  2.51730659E-001  1.26181366E-001
Al  2.49780891E-001  3.74979268E-001  1.25748928E-001
Al  2.49828884E-001  2.49810757E-001  2.49089615E-001
Al  3.77229477E-001  3.76819724E-001  2.47755268E-001
Al  3.75018701E-001  2.52346021E-001  3.75586570E-001
Al  2.47514449E-001  3.75018116E-001  3.76809097E-001
Al  2.50052247E-001  2.50041965E-001  4.99336333E-001
Al  3.76134486E-001  3.73183018E-001  5.00651292E-001
Al  3.73166826E-001  2.49901810E-001  6.27098520E-001
Al  2.50064441E-001  3.76239070E-001  6.27493017E-001
Al  2.49812043E-001  2.50037959E-001  7.50688781E-001
Al  3.73967251E-001  3.74884448E-001  7.50020147E-001
Al  3.77466757E-001  2.51879754E-001  8.75018480E-001
Al  2.48364104E-001  3.74127410E-001  8.74765601E-001
Al  2.50008819E-001  4.99962729E-001  2.05423697E-003
Al  3.75389343E-001  6.26348120E-001  1.14701141E-003
Al  3.73730549E-001  4.99532340E-001  1.24990607E-001
Al  2.50019489E-001  6.27448674E-001  1.24551393E-001
Al  2.50018110E-001  4.99018932E-001  2.50008588E-001
Al  3.75067524E-001  6.24572398E-001  2.51216324E-001
Al  3.75101155E-001  5.02190265E-001  3.76666803E-001
Al  2.51052506E-001  6.25028922E-001  3.75018145E-001
Al  2.50405874E-001  5.02489758E-001  4.99295860E-001
Al  3.75032383E-001  6.24991596E-001  4.99629891E-001
Al  3.75038064E-001  5.00839969E-001  6.26807819E-001
Al  2.50860650E-001  6.23723695E-001  6.25043692E-001
Al  2.49795579E-001  4.97540317E-001  7.49152212E-001
Al  3.74991537E-001  6.27124516E-001  7.50008958E-001
Al  3.76298830E-001  5.00018138E-001  8.75009701E-001
Al  2.48887292E-001  6.26236975E-001  8.74953871E-001
Al  2.50209722E-001  7.52129962E-001  -2.49491315E-003
Al  3.75031630E-001  8.74944872E-001  -1.74812174E-004
Al  3.74069701E-001  7.48489875E-001  1.25018990E-001
Al  2.49388807E-001  8.74905021E-001  1.23213545E-001
Al  2.49544875E-001  7.49945159E-001  2.49051072E-001
Al  3.76032129E-001  8.73131791E-001  2.52496912E-001
Al  3.75008660E-001  7.51158988E-001  3.74887106E-001
Al  2.50018172E-001  8.73429591E-001  3.77469899E-001
Al  2.49214883E-001  7.47658079E-001  4.97651437E-001
Al  3.72527028E-001  8.74464677E-001  5.00008537E-001
Al  3.75203962E-001  7.49228764E-001  6.25008372E-001
Al  2.50623641E-001  8.75122890E-001  6.23174035E-001
Al  2.50296543E-001  7.49879240E-001  7.49595945E-001
Al  3.74414442E-001  8.76638184E-001  7.49991006E-001
Al  3.75095263E-001  7.49900645E-001  8.76489012E-001
Al  2.51399907E-001  8.72561430E-001  8.77180981E-001
Al  5.02492410E-001  9.64612793E-004  -9.66758595E-005
Al  6.24991540E-001  1.24320007E-001  -3.08539916E-004
Al  6.24981474E-001  1.53657423E-003  1.24979978E-001
Al  5.02356987E-001  1.23213051E-001  1.24831016E-001
Al  5.00018632E-001  -1.82104590E-005  2.52488823E-001
Al  6.22595723E-001  1.27312291E-001  2.49981206E-001
Al  6.24565611E-001  -1.72617296E-003  3.72672956E-001
Al  4.97997540E-001  1.25222737E-001  3.72729179E-001
Al  4.99959797E-001  9.11322432E-006  4.99982347E-001
Al  6.23327136E-001  1.25034031E-001  5.00019372E-001
Al  6.25132614E-001  -1.81215526E-005  6.25396715E-001
Al  5.00527609E-001  1.24981516E-001  6.24860580E-001
Al  4.99096730E-001  2.05646034E-003  7.49333921E-001
Al  6.24981633E-001  1.24991507E-001  7.47950921E-001
Al  6.23015436E-001  7.43119469E-004  8.75039064E-001
Al  5.00018053E-001  1.24559149E-001  8.72686987E-001
Al  4.98209953E-001  2.50584501E-001  -2.46485945E-003
Al  6.27499916E-001  3.74910315E-001  2.41764908E-003
Al  6.25444242E-001  2.52470600E-001  1.22536496E-001
Al  5.00388423E-001  3.76994374E-001  1.24882243E-001
Al  5.00495493E-001  2.49970338E-001  2.50546245E-001
Al  6.24933250E-001  3.72521114E-001  2.48368654E-001
Al  6.24826506E-001  2.50328518E-001  3.74238750E-001
Al  5.01496397E-001  3.75082481E-001  3.72502081E-001
Al  4.99533950E-001  2.48397703E-001  5.00765636E-001
Al  6.23326524E-001  3.75649604E-001  4.99711815E-001
Al  6.23914368E-001  2.49080583E-001  6.24846404E-001
Al  5.00684833E-001  3.76123566E-001  6.23152151E-001
Al  4.97518391E-001  2.47746789E-001  7.49937318E-001
Al  6.24991610E-001  3.72873687E-001  7.49765905E-001
Al  6.27056889E-001  2.51990952E-001  8.75008890E-001
Al  4.98438799E-001  3.74991564E-001  8.76372165E-001
Al  4.98314351E-001  4.97983065E-001  5.34184944E-004
Al  6.24349937E-001  6.25787491E-001  -8.68904041E-005
Al  6.24940857E-001  5.02081096E-001  1.24990759E-001
Al  5.02487794E-001  6.25061658E-001  1.27499998E-001
Al  4.99991152E-001  5.01377400E-001  2.48580091E-001
Al  6.26973758E-001  6.22599441E-001  2.50018378E-001
Al  6.23190718E-001  4.99981820E-001  3.74412330E-001
Al  5.00180939E-001  6.25554317E-001  3.74536474E-001
Al  4.97711529E-001  4.99699410E-001  5.00067673E-001
Al  6.25018865E-001  6.25169802E-001  5.00441121E-001
Al  6.24991626E-001  4.99942900E-001  6.25008437E-001
Al  5.00018683E-001  6.23985199E-001  6.25124907E-001
Al  5.02498412E-001  5.02259249E-001  7.48747395E-001
Al  6.27499496E-001  6.24559391E-001  7.48547774E-001
Al  6.25172258E-001  4.97993579E-001  8.74940686E-001
Al  4.98026393E-001  6.23991746E-001  8.75018255E-001
Al  4.99955386E-001  7.47800799E-001  -1.68566755E-003
Al  6.23519213E-001  8.75019134E-001  -1.86414935E-005
Al  6.25395047E-001  7.47869168E-001  1.24016779E-001
Al  4.99963300E-001  8.74973040E-001  1.25614208E-001
Al  5.00008374E-001  7.50031279E-001  2.48784017E-001
Al  6.22784648E-001  8.77390113E-001  2.50187198E-001
Al  6.23414699E-001  7.50008814E-001  3.75386006E-001
Al  5.01789892E-001  8.73442569E-001  3.75020221E-001
Al  4.98110991E-001  7.52469624E-001  4.99497031E-001
Al  6.22630345E-001  8.73454898E-001  4.99966159E-001
Al  6.25783708E-001  7.50322617E-001  6.25245161E-001
Al  4.98978160E-001  8.77294256E-001  6.26945790E-001
Al  4.99917026E-001  7.49861973E-001  7.49787033E-001
Al  6.24811865E-001  8.73740678E-001  7.50008690E-001
Al  6.25799100E-001  7.49105466E-001  8.74732881E-001
Al  5.01835751E-001  8.74932534E-001  8.75249122E-001
Al  7.48625524E-001  -1.76305914E-004  3.44477336E-005
Al  8.76811180E-001  1.22917350E-001  9.49459267E-004
Al  8.74893631E-001  -9.94463396E-004  1.27474256E-001
Al  7.49054906E-001  1.25021245E-001  1.25782797E-001
Al  7.50540284E-001  2.03969448E-004  2.49119665E-001
Al  8.75672905E-001  1.24981110E-001  2.50069627E-001
Al  8.73796163E-001  -4.15709640E-004  3.75021063E-001
Al  7.49462680E-001  1.23937803E-001  3.76875159E-001
Al  7.52177606E-001  -8.90629156E-006  5.01119055E-001
Al  8.74652233E-001  1.24169367E-001  5.00074164E-001
Al  8.75151401E-001  4.27632188E-005  6.24294353E-001
Al  7.50008750E-001  1.24970123E-001  6.24503684E-001
Al  7.52088701E-001  1.90948984E-003  7.51986117E-001
Al  8.74958583E-001  1.24770011E-001  7.50554852E-001
Al  8.74149637E-001  -5.29248777E-005  8.72510791E-001
Al  7.50886588E-001  1.27283929E-001  8.75121228E-001
Al  7.50092232E-001  2.50181338E-001  2.49976249E-003
Al  8.75067415E-001  3.72521809E-001  2.49576636E-003
Al  8.75021105E-001  2.52420007E-001  1.25083966E-001
Al  7.50635965E-001  3.74538558E-001  1.27442308E-001
Al  7.49991092E-001  2.47566613E-001  2.49638607E-001
Al  8.75083534E-001  3.75490024E-001  2.47535224E-001
Al  8.76556117E-001  2.52479218E-001  3.72518147E-001
Al  7.52351889E-001  3.73303762E-001  3.74981007E-001
Al  7.50568836E-001  2.51587710E-001  4.99648885E-001
Al  8.77363181E-001  3.74734271E-001  5.00439638E-001
Al  8.73088939E-001  2.51126483E-001  6.24372945E-001
Al  7.50782055E-001  3.74624163E-001  6.23561732E-001
Al  7.50328105E-001  2.50024683E-001  7.52204125E-001
Al  8.73497317E-001  3.75030472E-001  7.50225234E-001
Al  8.76049644E-001  2.50009031E-001  8.74979904E-001
Al  7.49219115E-001  3.75039112E-001  8.74595175E-001
Al  7.50158869E-001  5.01488996E-001  -1.70542999E-003
Al  8.74954212E-001  6.24990865E-001  2.12150895E-003
Al  8.75450285E-001  5.01738947E-001  1.26995619E-001
Al  7.48471094E-001  6.24991296E-001  1.24856385E-001
Al  7.52448906E-001  4.99736173E-001  2.49470997E-001
Al  8.75078508E-001  6.24943339E-001  2.50514411E-001
Al  8.74376206E-001  4.99679846E-001  3.74980720E-001
Al  7.49962759E-001  6.26462820E-001  3.75017636E-001
Al  7.50074872E-001  4.98541265E-001  5.02441221E-001
Al  8.75268247E-001  6.25019644E-001  4.99180370E-001
Al  8.74881723E-001  5.00020179E-001  6.24275174E-001
Al  7.51711651E-001  6.25045167E-001  6.25485268E-001
Al  7.50043565E-001  5.01149643E-001  7.50018630E-001
Al  8.75036595E-001  6.25362779E-001  7.49569702E-001
Al  8.76474927E-001  5.00710952E-001  8.72979814E-001
Al  7.50019080E-001  6.23068960E-001  8.72769366E-001
Al  7.49939952E-001  7.49320866E-001  -7.70719013E-005
Al  8.73792381E-001  8.75134270E-001  -2.94034732E-004
Al  8.73300632E-001  7.49991180E-001  1.24979887E-001
Al  7.50961516E-001  8.74979776E-001  1.25561756E-001
Al  7.51557553E-001  7.50436725E-001  2.50008787E-001
Al  8.72623004E-001  8.74783077E-001  2.50093064E-001
Al  8.74990348E-001  7.49808148E-001  3.77293175E-001
Al  7.50377188E-001  8.77035944E-001  3.77072542E-001
Al  7.52000969E-001  7.50018469E-001  4.99270391E-001
Al  8.75906432E-001  8.75207655E-001  4.98116517E-001
Al  8.75043338E-001  7.49944564E-001  6.24344403E-001
Al  7.50699199E-001  8.75381314E-001  6.25827645E-001
Al  7.52448773E-001  7.50018253E-001  7.48302987E-001
Al  8.75825058E-001  8.75066447E-001  7.51555445E-001
Al  8.77485865E-001  7.50457745E-001  8.75115109E-001
Al  7.47886498E-001  8.74981645E-001  8.72592909E-001
K_POINTS automatic
2 2 2 1 1 1
