&CONTROL
restart_mode = 'from_scratch',
calculation = 'scf',
outdir = '/gpfs/bb/bxp912/scratch',
pseudo_dir = '/gpfs/bb/bxp912/pseudopotentials',
prefix = '1.44000000E-001',
etot_conv_thr = 1.00000000E-007,
forc_conv_thr = 1.00000000E-007,
nstep = 200,
tprnfor = .true.,
tstress = .true.,
disk_io = 'low',
/
&SYSTEM
ibrav = 14,
celldm(1) = 8.07000000E+000,
celldm(2) = 1.00000000E+000,
celldm(3) = 1.00000000E+000,
celldm(4) = 0.00000000E+000,
celldm(5) = 0.00000000E+000,
celldm(6) = 0.00000000E+000,
nat = 32,
ntyp = 1,
ecutwfc = 35,
ecutrho = 208,
occupations = 'smearing',
smearing = 'mv',
degauss = 5.00000007E-002,
/
&ELECTRONS
diagonalization = 'david',
mixing_mode = plain,
mixing_beta = 6.99999988E-001,
conv_thr = 1.00000000E-007,
/
&IONS
ion_dynamics = 'bfgs',
/
&CELL
cell_dynamics = 'bfgs',
press = 0.00000000E+000,
cell_factor = 2.00000000E+000,
/
ATOMIC_SPECIES
Al  2.69815390E+001  Al.pbe-n-kjpaw_psl.0.1.UPF
ATOMIC_POSITIONS crystal
Al  4.80008923E-003  2.91982836E-003  5.90939587E-004
Al  2.50112027E-001  2.52740657E-001  1.40067570E-003
Al  2.49961690E-001  9.18346154E-005  2.49535064E-001
Al  -7.26389371E-004  2.47074417E-001  2.47960644E-001
Al  -3.68714122E-003  -2.69749640E-004  4.95504753E-001
Al  2.45632574E-001  2.50227134E-001  5.00037207E-001
Al  2.50764736E-001  -1.09900275E-004  7.50017921E-001
Al  -4.81136462E-003  2.51251875E-001  7.50017237E-001
Al  1.47282900E-004  4.96888157E-001  -1.93353691E-003
Al  2.50765044E-001  7.47152824E-001  8.64705283E-005
Al  2.49983183E-001  5.00044429E-001  2.54246737E-001
Al  1.31236127E-003  7.49963552E-001  2.49844073E-001
Al  -3.67280321E-005  5.00036346E-001  5.00482621E-001
Al  2.48583489E-001  7.49672964E-001  4.95015427E-001
Al  2.49942374E-001  4.99337583E-001  7.50792831E-001
Al  -4.00065300E-004  7.54957603E-001  7.54194037E-001
Al  5.04919360E-001  4.94605649E-004  -4.29640653E-004
Al  7.50394372E-001  2.50331802E-001  -1.16120456E-004
Al  7.53891187E-001  1.70967078E-005  2.45190281E-001
Al  5.00168882E-001  2.45000359E-001  2.53204073E-001
Al  5.01207591E-001  -3.02165371E-004  5.00085014E-001
Al  7.53594022E-001  2.49618429E-001  4.95053274E-001
Al  7.49963029E-001  -4.95755444E-003  7.47961232E-001
Al  5.00421761E-001  2.54622256E-001  7.48068142E-001
Al  5.00051435E-001  5.04085179E-001  1.01958314E-004
Al  7.46913608E-001  7.52425750E-001  -3.68613239E-005
Al  7.50260383E-001  5.02066538E-001  2.49266429E-001
Al  5.01929086E-001  7.49780195E-001  2.54903942E-001
Al  5.03446288E-001  5.01745329E-001  5.00060585E-001
Al  7.48101610E-001  7.49573017E-001  4.99962806E-001
Al  7.47459780E-001  5.00111811E-001  7.51119003E-001
Al  4.97706564E-001  7.50017126E-001  7.45525294E-001
K_POINTS automatic
2 2 2 1 1 1
