&CONTROL
restart_mode = 'from_scratch',
calculation = 'scf',
outdir = '/gpfs/bb/bxp912/scratch',
pseudo_dir = '/gpfs/bb/bxp912/pseudopotentials',
prefix = '1.44000000E-001',
etot_conv_thr = 1.00000000E-007,
forc_conv_thr = 1.00000000E-007,
nstep = 200,
tprnfor = .true.,
tstress = .true.,
disk_io = 'low',
/
&SYSTEM
ibrav = 14,
celldm(1) = 8.07000000E+000,
celldm(2) = 1.00000000E+000,
celldm(3) = 1.00000000E+000,
celldm(4) = 0.00000000E+000,
celldm(5) = 0.00000000E+000,
celldm(6) = 0.00000000E+000,
nat = 32,
ntyp = 1,
ecutwfc = 35,
ecutrho = 208,
occupations = 'smearing',
smearing = 'mv',
degauss = 5.00000007E-002,
/
&ELECTRONS
diagonalization = 'david',
mixing_mode = plain,
mixing_beta = 6.99999988E-001,
conv_thr = 1.00000000E-007,
/
&IONS
ion_dynamics = 'bfgs',
/
&CELL
cell_dynamics = 'bfgs',
press = 0.00000000E+000,
cell_factor = 2.00000000E+000,
/
ATOMIC_SPECIES
Al  2.69815390E+001  Al.pbe-n-kjpaw_psl.0.1.UPF
ATOMIC_POSITIONS crystal
Al  -1.46540569E-003  4.99502597E-003  7.64824827E-004
Al  2.49556436E-001  2.48197060E-001  9.27581167E-005
Al  2.48485292E-001  1.76133720E-003  2.45041046E-001
Al  -2.62449818E-003  2.53645558E-001  2.53286030E-001
Al  5.71917470E-005  -6.79250652E-004  4.99951986E-001
Al  2.49686764E-001  2.50083669E-001  5.00056029E-001
Al  2.47936780E-001  2.41981952E-003  7.49744426E-001
Al  4.98377793E-003  2.51247337E-001  7.50016767E-001
Al  2.29488422E-003  5.00971540E-001  -1.93370208E-003
Al  2.54965310E-001  7.52116619E-001  3.59547277E-004
Al  2.54600497E-001  5.00145007E-001  2.51756306E-001
Al  4.99604528E-003  7.53666124E-001  2.49962139E-001
Al  3.73941964E-003  4.95950801E-001  5.02506768E-001
Al  2.45686983E-001  7.49700853E-001  4.98675698E-001
Al  2.54756700E-001  5.03507446E-001  7.45260824E-001
Al  -3.90892534E-003  7.48575426E-001  7.48985661E-001
Al  4.99946233E-001  -3.53639764E-004  1.89079096E-005
Al  7.50698391E-001  2.49213883E-001  -3.32289850E-003
Al  7.54028046E-001  -1.59243625E-003  2.52255424E-001
Al  4.99345928E-001  2.47081273E-001  2.49779709E-001
Al  5.04997943E-001  -1.85811148E-003  4.96910878E-001
Al  7.51455811E-001  2.50016746E-001  4.96501114E-001
Al  7.45115196E-001  4.39287484E-003  7.45069404E-001
Al  4.96497472E-001  2.50292932E-001  7.49426941E-001
Al  5.03591191E-001  5.00636675E-001  -2.50309887E-004
Al  7.50542835E-001  7.49727573E-001  -3.37072220E-003
Al  7.47851774E-001  5.00018813E-001  2.49607552E-001
Al  5.00046502E-001  7.49936192E-001  2.51192947E-001
Al  4.96376438E-001  4.98814253E-001  4.98750710E-001
Al  7.46590268E-001  7.47010608E-001  5.00779562E-001
Al  7.54666987E-001  4.95055040E-001  7.45114876E-001
Al  4.98543560E-001  7.49960195E-001  7.50502420E-001
K_POINTS automatic
2 2 2 1 1 1
