&CONTROL
restart_mode = 'from_scratch',
calculation = 'scf',
outdir = '/gpfs/bb/bxp912/scratch',
pseudo_dir = '/gpfs/bb/bxp912/pseudopotentials',
prefix = '1.44000000E-001',
etot_conv_thr = 1.00000000E-007,
forc_conv_thr = 1.00000000E-007,
nstep = 200,
tprnfor = .true.,
tstress = .true.,
disk_io = 'low',
/
&SYSTEM
ibrav = 14,
celldm(1) = 8.07000000E+000,
celldm(2) = 1.00000000E+000,
celldm(3) = 1.00000000E+000,
celldm(4) = 0.00000000E+000,
celldm(5) = 0.00000000E+000,
celldm(6) = 0.00000000E+000,
nat = 32,
ntyp = 1,
ecutwfc = 35,
ecutrho = 208,
occupations = 'smearing',
smearing = 'mv',
degauss = 5.00000007E-002,
/
&ELECTRONS
diagonalization = 'david',
mixing_mode = plain,
mixing_beta = 6.99999988E-001,
conv_thr = 1.00000000E-007,
/
&IONS
ion_dynamics = 'bfgs',
/
&CELL
cell_dynamics = 'bfgs',
press = 0.00000000E+000,
cell_factor = 2.00000000E+000,
/
ATOMIC_SPECIES
Al  2.69815390E+001  Al.pbe-n-kjpaw_psl.0.1.UPF
ATOMIC_POSITIONS crystal
Al  -6.45083066E-005  3.92162897E-005  2.18610701E-003
Al  2.54195554E-001  2.49847136E-001  2.29375118E-003
Al  2.50416417E-001  8.26197592E-005  2.47312249E-001
Al  3.72876871E-005  2.49963583E-001  2.49848914E-001
Al  3.67498989E-005  4.91435655E-003  4.97883497E-001
Al  2.49378546E-001  2.51298518E-001  4.96921160E-001
Al  2.49961924E-001  1.21372727E-004  7.53778013E-001
Al  -1.61243493E-003  2.48701346E-001  7.45581656E-001
Al  -1.59839527E-004  5.00063311E-001  -4.98289306E-003
Al  2.45057824E-001  7.49928005E-001  -4.95934832E-003
Al  2.51754982E-001  4.99559100E-001  2.45107223E-001
Al  -3.67580729E-003  7.49004393E-001  2.50051761E-001
Al  -3.31887957E-004  5.02245373E-001  5.00148393E-001
Al  2.47679086E-001  7.54155517E-001  5.00036524E-001
Al  2.53517258E-001  4.98669974E-001  7.53580601E-001
Al  4.93542603E-003  7.46312322E-001  7.48395175E-001
Al  4.98182640E-001  -3.29338906E-004  5.56975076E-004
Al  7.51430637E-001  2.47780202E-001  8.68418932E-005
Al  7.49120605E-001  2.06495989E-003  2.49660311E-001
Al  4.98648520E-001  2.53983058E-001  2.52669267E-001
Al  5.02379209E-001  -4.03712999E-005  5.02564754E-001
Al  7.48711777E-001  2.47519143E-001  4.99935732E-001
Al  7.50939032E-001  3.55777602E-003  7.47295416E-001
Al  4.95808260E-001  2.54799977E-001  7.51316923E-001
Al  5.03465927E-001  4.99961596E-001  3.00618490E-004
Al  7.50499759E-001  7.54515495E-001  -4.97910037E-003
Al  7.49752326E-001  4.96706745E-001  2.45981692E-001
Al  5.00016852E-001  7.47514230E-001  2.50055701E-001
Al  4.96724406E-001  4.95002798E-001  5.01153887E-001
Al  7.49963534E-001  7.49954311E-001  5.01213940E-001
Al  7.48658059E-001  5.04999488E-001  7.50017157E-001
Al  5.00177692E-001  7.50770753E-001  7.47054843E-001
K_POINTS automatic
2 2 2 1 1 1
