&CONTROL
restart_mode = 'from_scratch',
calculation = 'scf',
outdir = '/gpfs/bb/bxp912/scratch',
pseudo_dir = '/gpfs/bb/bxp912/pseudopotentials',
prefix = '3.00000000E-001',
etot_conv_thr = 1.00000000E-007,
forc_conv_thr = 1.00000000E-007,
nstep = 200,
tprnfor = .true.,
tstress = .true.,
disk_io = 'low',
/
&SYSTEM
ibrav = 14,
celldm(1) = 3.05001797E+001,
celldm(2) = 1.00000000E+000,
celldm(3) = 1.00000000E+000,
celldm(4) = 0.00000000E+000,
celldm(5) = 0.00000000E+000,
celldm(6) = 0.00000000E+000,
nat = 256,
ntyp = 1,
ecutwfc = 35,
ecutrho = 208,
occupations = 'smearing',
smearing = 'mv',
degauss = 5.00000007E-002,
/
&ELECTRONS
diagonalization = 'david',
mixing_mode = plain,
mixing_beta = 6.99999988E-001,
conv_thr = 1.00000000E-007,
/
&IONS
ion_dynamics = 'bfgs',
/
&CELL
cell_dynamics = 'bfgs',
press = 0.00000000E+000,
cell_factor = 2.00000000E+000,
/
ATOMIC_SPECIES
Al  2.69815390E+001  Al.pbe-n-kjpaw_psl.0.1.UPF
ATOMIC_POSITIONS crystal
Al  -2.26359509E-005  -1.88304599E-005  -1.94489749E-003
Al  1.23466337E-001  1.22796855E-001  -2.21029348E-003
Al  1.26163458E-001  2.17125719E-003  1.24713324E-001
Al  5.46435243E-005  1.24062893E-001  1.22872603E-001
Al  2.26057301E-003  2.29296727E-003  2.49902530E-001
Al  1.23249801E-001  1.24631910E-001  2.50899470E-001
Al  1.26204326E-001  3.82840224E-004  3.73775291E-001
Al  2.43242494E-003  1.23358985E-001  3.75008740E-001
Al  -6.44503016E-004  -9.37539776E-005  5.02482995E-001
Al  1.22732069E-001  1.24764152E-001  4.97589948E-001
Al  1.22523904E-001  -1.90305665E-003  6.25018245E-001
Al  -8.42805653E-004  1.26641792E-001  6.24981845E-001
Al  1.39844212E-003  2.37465986E-003  7.47896505E-001
Al  1.25116121E-001  1.25893600E-001  7.48936832E-001
Al  1.26675876E-001  2.35988627E-003  8.74899510E-001
Al  2.04276723E-004  1.24807332E-001  8.74962744E-001
Al  -9.26297671E-006  2.50427859E-001  -1.26887609E-003
Al  1.27499887E-001  3.76329927E-001  -3.00416534E-004
Al  1.25008817E-001  2.48189897E-001  1.25687647E-001
Al  -1.82357348E-005  3.72500112E-001  1.23394827E-001
Al  1.42579154E-003  2.49656679E-001  2.47506176E-001
Al  1.25026584E-001  3.74118418E-001  2.50008370E-001
Al  1.24108911E-001  2.50324656E-001  3.76666809E-001
Al  -1.84572930E-003  3.73510510E-001  3.76347551E-001
Al  -2.13612047E-003  2.50075488E-001  4.99044999E-001
Al  1.23163673E-001  3.72500731E-001  4.97577894E-001
Al  1.23948409E-001  2.47522405E-001  6.24973645E-001
Al  -1.02027338E-004  3.72803095E-001  6.23431568E-001
Al  1.21249747E-003  2.48095402E-001  7.51074364E-001
Al  1.22630003E-001  3.74767845E-001  7.50020513E-001
Al  1.24893146E-001  2.50145781E-001  8.74980677E-001
Al  5.70472839E-004  3.72972165E-001  8.74991565E-001
Al  -9.04779044E-004  4.99668410E-001  -7.40466721E-005
Al  1.24981093E-001  6.24991629E-001  -6.98514731E-004
Al  1.24538223E-001  5.02109941E-001  1.25047878E-001
Al  -6.99628133E-005  6.25074264E-001  1.25018621E-001
Al  5.93496892E-004  5.00748805E-001  2.50036806E-001
Al  1.25037575E-001  6.24406962E-001  2.50311077E-001
Al  1.24361105E-001  4.99482415E-001  3.74951589E-001
Al  3.42964029E-004  6.26457907E-001  3.75315080E-001
Al  6.16672000E-004  5.00048914E-001  5.00008594E-001
Al  1.25009333E-001  6.24569525E-001  4.99624194E-001
Al  1.24184339E-001  5.01952165E-001  6.22833725E-001
Al  1.03704724E-003  6.25095092E-001  6.24970457E-001
Al  -8.84796939E-006  4.97977067E-001  7.52229951E-001
Al  1.25102600E-001  6.22858098E-001  7.50835362E-001
Al  1.27109480E-001  4.99925999E-001  8.73333355E-001
Al  -8.89280488E-006  6.24937762E-001  8.74835780E-001
Al  -1.97074191E-004  7.50020444E-001  -7.68222307E-004
Al  1.24175005E-001  8.77187047E-001  -1.83806988E-003
Al  1.24596793E-001  7.50056442E-001  1.27260423E-001
Al  -1.40027731E-003  8.76718381E-001  1.25107237E-001
Al  -1.38802052E-003  7.52499359E-001  2.49757060E-001
Al  1.27230321E-001  8.73457309E-001  2.50031388E-001
Al  1.23987129E-001  7.47802186E-001  3.74747696E-001
Al  2.48610627E-003  8.72761211E-001  3.76384274E-001
Al  2.20839887E-003  7.49098877E-001  4.99884790E-001
Al  1.22564881E-001  8.73710177E-001  5.00008617E-001
Al  1.26695932E-001  7.52169866E-001  6.23892896E-001
Al  -1.20464874E-004  8.75017657E-001  6.25232326E-001
Al  4.84605543E-005  7.49990945E-001  7.49839413E-001
Al  1.25029489E-001  8.75546583E-001  7.47917783E-001
Al  1.25078183E-001  7.51679936E-001  8.74459956E-001
Al  -9.11313520E-004  8.74990415E-001  8.74114877E-001
Al  2.48913872E-001  -2.10044221E-005  1.66452494E-003
Al  3.74714266E-001  1.24939619E-001  -1.77649971E-004
Al  3.72876223E-001  -9.23572884E-004  1.26618413E-001
Al  2.49991284E-001  1.24651180E-001  1.24922068E-001
Al  2.49427178E-001  1.36308461E-003  2.50177565E-001
Al  3.74616645E-001  1.24941512E-001  2.49357153E-001
Al  3.76321372E-001  8.39105950E-004  3.74166685E-001
Al  2.50235013E-001  1.24904401E-001  3.72920563E-001
Al  2.50018567E-001  1.96623800E-004  5.02207904E-001
Al  3.74825656E-001  1.25040190E-001  5.01765577E-001
Al  3.76496599E-001  -2.77150880E-004  6.25108918E-001
Al  2.50721272E-001  1.27416949E-001  6.25889955E-001
Al  2.47523512E-001  6.68894912E-005  7.47576426E-001
Al  3.72922145E-001  1.25117897E-001  7.51541259E-001
Al  3.77372472E-001  9.83626803E-004  8.72697896E-001
Al  2.50840694E-001  1.24558621E-001  8.74863579E-001
Al  2.48718117E-001  2.47776845E-001  1.87022739E-005
Al  3.74872071E-001  3.75522680E-001  -2.03332824E-004
Al  3.75038545E-001  2.52183913E-001  1.24392565E-001
Al  2.50092777E-001  3.74981630E-001  1.24736309E-001
Al  2.48149620E-001  2.52309552E-001  2.48618929E-001
Al  3.77192129E-001  3.77496325E-001  2.49889319E-001
Al  3.77350016E-001  2.50018662E-001  3.74662826E-001
Al  2.50008387E-001  3.75702888E-001  3.77435645E-001
Al  2.51727941E-001  2.49387515E-001  5.00202371E-001
Al  3.72771455E-001  3.73826707E-001  4.99981870E-001
Al  3.72528692E-001  2.49152430E-001  6.23145654E-001
Al  2.51144881E-001  3.74846810E-001  6.24936576E-001
Al  2.50025519E-001  2.50036066E-001  7.50075100E-001
Al  3.74956634E-001  3.74719607E-001  7.49954114E-001
Al  3.76781297E-001  2.48987468E-001  8.72687508E-001
Al  2.49148879E-001  3.77385315E-001  8.75018163E-001
Al  2.49932469E-001  4.99533523E-001  -1.23215886E-004
Al  3.72500052E-001  6.27124663E-001  -9.83214303E-004
Al  3.77042319E-001  4.99773953E-001  1.24596367E-001
Al  2.49913875E-001  6.24935932E-001  1.24981879E-001
Al  2.50075978E-001  5.00113967E-001  2.52494517E-001
Al  3.75577693E-001  6.24972588E-001  2.48381831E-001
Al  3.76419070E-001  5.00243174E-001  3.75018388E-001
Al  2.49981789E-001  6.24981825E-001  3.77499941E-001
Al  2.48781055E-001  5.01552157E-001  5.00017787E-001
Al  3.77240367E-001  6.24262589E-001  5.02499911E-001
Al  3.74212444E-001  4.99982339E-001  6.25018338E-001
Al  2.51833316E-001  6.23710501E-001  6.24072747E-001
Al  2.50267369E-001  5.00244824E-001  7.49718723E-001
Al  3.76285441E-001  6.25046764E-001  7.50018268E-001
Al  3.75690766E-001  5.01157622E-001  8.74546734E-001
Al  2.50030525E-001  6.24434947E-001  8.77429887E-001
Al  2.51098016E-001  7.51041961E-001  -5.02916299E-005
Al  3.77213565E-001  8.75191875E-001  9.72257428E-004
Al  3.77471003E-001  7.49439473E-001  1.25009430E-001
Al  2.47588646E-001  8.75536978E-001  1.25066292E-001
Al  2.50136314E-001  7.50018210E-001  2.49927708E-001
Al  3.75763306E-001  8.76623702E-001  2.50043581E-001
Al  3.75018200E-001  7.49512751E-001  3.74710654E-001
Al  2.49635071E-001  8.74468350E-001  3.73764668E-001
Al  2.48183118E-001  7.47500571E-001  4.99153979E-001
Al  3.75154227E-001  8.73445687E-001  5.01331195E-001
Al  3.74939295E-001  7.49593633E-001  6.24981834E-001
Al  2.50008772E-001  8.74327895E-001  6.24915272E-001
Al  2.47823220E-001  7.47519755E-001  7.49765381E-001
Al  3.74976169E-001  8.74843431E-001  7.50174945E-001
Al  3.74961336E-001  7.52447785E-001  8.75039519E-001
Al  2.49945080E-001  8.75033777E-001  8.72502698E-001
Al  5.00910843E-001  -1.05850291E-004  1.38759359E-003
Al  6.25212047E-001  1.24810817E-001  -3.39880471E-004
Al  6.24991425E-001  -2.35012386E-003  1.26947536E-001
Al  5.01111915E-001  1.24934636E-001  1.25029092E-001
Al  5.00692694E-001  -8.77274982E-006  2.51251683E-001
Al  6.23133689E-001  1.25050633E-001  2.49936961E-001
Al  6.25220010E-001  2.12499150E-005  3.75555164E-001
Al  4.98652877E-001  1.26445813E-001  3.76317677E-001
Al  5.00036475E-001  2.10351467E-003  4.99767304E-001
Al  6.24436679E-001  1.24981878E-001  4.99860090E-001
Al  6.26098195E-001  -1.43907303E-003  6.25030975E-001
Al  5.00235389E-001  1.23284434E-001  6.24947417E-001
Al  5.00429899E-001  -1.58609530E-003  7.48510862E-001
Al  6.24785017E-001  1.25143812E-001  7.50759279E-001
Al  6.26791602E-001  4.62473922E-004  8.74971206E-001
Al  5.00305108E-001  1.25084820E-001  8.74501135E-001
Al  4.99800068E-001  2.50145690E-001  -6.13654263E-005
Al  6.27492496E-001  3.72500277E-001  -7.15352855E-004
Al  6.22747956E-001  2.49946556E-001  1.25151960E-001
Al  5.01273164E-001  3.73941390E-001  1.24900660E-001
Al  4.99951054E-001  2.50294370E-001  2.50086734E-001
Al  6.24177366E-001  3.74952053E-001  2.49854072E-001
Al  6.27320648E-001  2.50593357E-001  3.73526430E-001
Al  5.00299549E-001  3.76616540E-001  3.75655110E-001
Al  5.00126512E-001  2.50411930E-001  5.00286942E-001
Al  6.24991582E-001  3.77294337E-001  5.00054448E-001
Al  6.27214896E-001  2.52472588E-001  6.23939153E-001
Al  4.99981704E-001  3.74113074E-001  6.22512368E-001
Al  4.99086459E-001  2.47942851E-001  7.49327645E-001
Al  6.25130470E-001  3.76835176E-001  7.49955554E-001
Al  6.25834779E-001  2.49978756E-001  8.75294179E-001
Al  4.99660006E-001  3.77048415E-001  8.74633233E-001
Al  4.99056562E-001  5.02229975E-001  3.27204953E-005
Al  6.24967481E-001  6.22705657E-001  4.46546422E-004
Al  6.26725336E-001  5.01883872E-001  1.27248750E-001
Al  4.98957490E-001  6.22503322E-001  1.26181409E-001
Al  5.00494343E-001  4.99505411E-001  2.50036793E-001
Al  6.23353039E-001  6.25046148E-001  2.52200338E-001
Al  6.24812152E-001  4.99557004E-001  3.76939345E-001
Al  5.02327576E-001  6.25454448E-001  3.74652233E-001
Al  4.97554065E-001  4.99748199E-001  5.02154879E-001
Al  6.24388414E-001  6.22727410E-001  4.99872859E-001
Al  6.24773020E-001  4.97500292E-001  6.24517664E-001
Al  4.99905015E-001  6.24247052E-001  6.23772105E-001
Al  4.98949639E-001  5.01256590E-001  7.50018165E-001
Al  6.26497120E-001  6.22532108E-001  7.50018870E-001
Al  6.25863667E-001  5.00619150E-001  8.75041862E-001
Al  4.97501359E-001  6.24963893E-001  8.74720346E-001
Al  5.01670830E-001  7.51346246E-001  -8.64121681E-004
Al  6.27045952E-001  8.75027331E-001  -5.86731356E-004
Al  6.27356680E-001  7.52290265E-001  1.26719168E-001
Al  5.01236360E-001  8.77374521E-001  1.23187409E-001
Al  5.00009088E-001  7.50018749E-001  2.49937968E-001
Al  6.24762505E-001  8.77440514E-001  2.51691377E-001
Al  6.24877131E-001  7.49981857E-001  3.75034672E-001
Al  4.98430930E-001  8.75120685E-001  3.75029023E-001
Al  4.99941798E-001  7.47922132E-001  4.99779837E-001
Al  6.25018117E-001  8.77126354E-001  5.00303947E-001
Al  6.22501691E-001  7.50391477E-001  6.23055202E-001
Al  4.99623201E-001  8.75182185E-001  6.25843331E-001
Al  5.00316404E-001  7.49911817E-001  7.47528560E-001
Al  6.24942079E-001  8.74979376E-001  7.49900077E-001
Al  6.27348527E-001  7.48522249E-001  8.75092591E-001
Al  5.00460165E-001  8.75149684E-001  8.75018470E-001
Al  7.50024076E-001  3.70113018E-005  -1.54045533E-003
Al  8.77497184E-001  1.22961117E-001  -5.69201847E-004
Al  8.75030213E-001  -1.81181310E-005  1.24981781E-001
Al  7.52485827E-001  1.24991448E-001  1.24460602E-001
Al  7.50098088E-001  3.42252432E-004  2.50974294E-001
Al  8.75036126E-001  1.24754412E-001  2.49991540E-001
Al  8.77495127E-001  3.60460237E-004  3.75176027E-001
Al  7.52391493E-001  1.24990678E-001  3.75018137E-001
Al  7.51829320E-001  2.41856915E-003  4.99981050E-001
Al  8.73945423E-001  1.25046020E-001  4.99981729E-001
Al  8.77295248E-001  -7.94904324E-005  6.22618325E-001
Al  7.52082577E-001  1.25019760E-001  6.25096213E-001
Al  7.50050078E-001  2.17511177E-004  7.51924008E-001
Al  8.76126737E-001  1.27468514E-001  7.50301850E-001
Al  8.73868523E-001  8.41413153E-006  8.75018137E-001
Al  7.48628596E-001  1.25386231E-001  8.75322596E-001
Al  7.48106932E-001  2.49704645E-001  2.13079057E-003
Al  8.75034722E-001  3.76821757E-001  1.84855111E-003
Al  8.72919966E-001  2.47664203E-001  1.25008776E-001
Al  7.50580531E-001  3.72531610E-001  1.24355623E-001
Al  7.52247417E-001  2.48906625E-001  2.48396716E-001
Al  8.75151561E-001  3.74974096E-001  2.48675389E-001
Al  8.75402950E-001  2.51143704E-001  3.74980659E-001
Al  7.52146615E-001  3.73006575E-001  3.75079062E-001
Al  7.50471902E-001  2.51616472E-001  4.99675956E-001
Al  8.75421148E-001  3.74981063E-001  5.01551988E-001
Al  8.73421071E-001  2.48746676E-001  6.24539408E-001
Al  7.50057195E-001  3.74941985E-001  6.27322941E-001
Al  7.48764332E-001  2.49963722E-001  7.49991090E-001
Al  8.76852545E-001  3.75153595E-001  7.47511331E-001
Al  8.74387153E-001  2.47796329E-001  8.75008570E-001
Al  7.52457388E-001  3.73992524E-001  8.74948221E-001
Al  7.50009105E-001  5.00009116E-001  -2.32139009E-003
Al  8.72618087E-001  6.24964594E-001  -1.25725949E-003
Al  8.74434240E-001  5.01966011E-001  1.25110481E-001
Al  7.48961241E-001  6.26146675E-001  1.23348244E-001
Al  7.49557496E-001  4.99863507E-001  2.49968804E-001
Al  8.74980435E-001  6.25050158E-001  2.47908057E-001
Al  8.75838112E-001  5.00676758E-001  3.72768310E-001
Al  7.50370003E-001  6.25018109E-001  3.75133317E-001
Al  7.49451045E-001  4.97540121E-001  5.01949105E-001
Al  8.75360881E-001  6.25008597E-001  5.00302146E-001
Al  8.75009763E-001  5.01190988E-001  6.25008394E-001
Al  7.49764421E-001  6.26522520E-001  6.27220968E-001
Al  7.50408063E-001  5.02316560E-001  7.47847658E-001
Al  8.76699074E-001  6.25728704E-001  7.52498227E-001
Al  8.75552045E-001  5.00018530E-001  8.73873667E-001
Al  7.50465729E-001  6.24738476E-001  8.75065964E-001
Al  7.49980144E-001  7.47595475E-001  -1.82401955E-005
Al  8.75486960E-001  8.75504845E-001  -2.38492234E-003
Al  8.76492166E-001  7.52120605E-001  1.24826844E-001
Al  7.49981563E-001  8.75414884E-001  1.24180619E-001
Al  7.50063595E-001  7.47515611E-001  2.49903980E-001
Al  8.74307285E-001  8.75037161E-001  2.50049854E-001
Al  8.73636918E-001  7.50641777E-001  3.74708877E-001
Al  7.49023438E-001  8.74446653E-001  3.75054677E-001
Al  7.51107961E-001  7.49853623E-001  5.00142873E-001
Al  8.74908088E-001  8.77480290E-001  5.00018448E-001
Al  8.77012769E-001  7.49750077E-001  6.27307196E-001
Al  7.49955253E-001  8.73976938E-001  6.22782204E-001
Al  7.49715176E-001  7.49944166E-001  7.49936510E-001
Al  8.74516732E-001  8.74838239E-001  7.49462491E-001
Al  8.73982878E-001  7.51794333E-001  8.77492284E-001
Al  7.49969667E-001  8.73222565E-001  8.75057722E-001
K_POINTS automatic
2 2 2 1 1 1
