&CONTROL
restart_mode = 'from_scratch',
calculation = 'scf',
outdir = '/gpfs/bb/bxp912/scratch',
pseudo_dir = '/gpfs/bb/bxp912/pseudopotentials',
prefix = '1.44000000E-001',
etot_conv_thr = 1.00000000E-007,
forc_conv_thr = 1.00000000E-007,
nstep = 200,
tprnfor = .true.,
tstress = .true.,
disk_io = 'low',
/
&SYSTEM
ibrav = 14,
celldm(1) = 8.07000000E+000,
celldm(2) = 1.00000000E+000,
celldm(3) = 1.00000000E+000,
celldm(4) = 0.00000000E+000,
celldm(5) = 0.00000000E+000,
celldm(6) = 0.00000000E+000,
nat = 32,
ntyp = 1,
ecutwfc = 35,
ecutrho = 208,
occupations = 'smearing',
smearing = 'mv',
degauss = 5.00000007E-002,
/
&ELECTRONS
diagonalization = 'david',
mixing_mode = plain,
mixing_beta = 6.99999988E-001,
conv_thr = 1.00000000E-007,
/
&IONS
ion_dynamics = 'bfgs',
/
&CELL
cell_dynamics = 'bfgs',
press = 0.00000000E+000,
cell_factor = 2.00000000E+000,
/
ATOMIC_SPECIES
Al  2.69815390E+001  Al.pbe-n-kjpaw_psl.0.1.UPF
ATOMIC_POSITIONS crystal
Al  -1.39434523E-004  1.38253237E-003  5.06070284E-004
Al  2.52375798E-001  2.49960806E-001  -1.17446181E-004
Al  2.54734908E-001  -4.24325849E-004  2.50979433E-001
Al  -1.71922373E-005  2.54830648E-001  2.54041605E-001
Al  -1.00836962E-003  -2.45344658E-003  4.99278270E-001
Al  2.52313916E-001  2.47770051E-001  4.95007725E-001
Al  2.50518714E-001  -9.76861226E-005  7.54994279E-001
Al  1.17318346E-003  2.51886351E-001  7.50036717E-001
Al  3.15784237E-003  4.99627878E-001  4.33515851E-003
Al  2.47297738E-001  7.50036667E-001  2.00937676E-003
Al  2.50518687E-001  4.96291948E-001  2.48910285E-001
Al  -3.16840386E-003  7.45381670E-001  2.45432718E-001
Al  2.33687141E-003  4.98766129E-001  4.97079311E-001
Al  2.54837851E-001  7.50367000E-001  5.02114027E-001
Al  2.49821734E-001  4.95623050E-001  7.46316711E-001
Al  -6.12014483E-004  7.54155168E-001  7.46625477E-001
Al  5.00718319E-001  4.45271638E-004  9.43806574E-004
Al  7.54965140E-001  2.49859220E-001  -4.99281685E-003
Al  7.48793738E-001  1.74280505E-005  2.50431331E-001
Al  5.02288426E-001  2.50192184E-001  2.51427229E-001
Al  5.00088821E-001  -4.80578709E-003  5.00905728E-001
Al  7.50787689E-001  2.49927389E-001  4.99129472E-001
Al  7.50017816E-001  -4.30943487E-004  7.48951875E-001
Al  5.01175264E-001  2.45436191E-001  7.50658913E-001
Al  4.98866731E-001  4.99720867E-001  -1.82024275E-003
Al  7.50063856E-001  7.49374711E-001  -1.87498216E-004
Al  7.49965993E-001  4.99620492E-001  2.50036378E-001
Al  5.02222856E-001  7.50435088E-001  2.49951099E-001
Al  4.98573852E-001  5.00082125E-001  4.97856118E-001
Al  7.51090349E-001  7.46731417E-001  4.99465053E-001
Al  7.51297426E-001  5.01294585E-001  7.54125204E-001
Al  5.00163983E-001  7.52370520E-001  7.50190872E-001
K_POINTS automatic
2 2 2 1 1 1
