&CONTROL
restart_mode = 'from_scratch',
calculation = 'scf',
outdir = '/gpfs/bb/bxp912/scratch',
pseudo_dir = '/gpfs/bb/bxp912/pseudopotentials',
prefix = '1.44000000E-001',
etot_conv_thr = 1.00000000E-007,
forc_conv_thr = 1.00000000E-007,
nstep = 200,
tprnfor = .true.,
tstress = .true.,
disk_io = 'low',
/
&SYSTEM
ibrav = 14,
celldm(1) = 8.07000000E+000,
celldm(2) = 1.00000000E+000,
celldm(3) = 1.00000000E+000,
celldm(4) = 0.00000000E+000,
celldm(5) = 0.00000000E+000,
celldm(6) = 0.00000000E+000,
nat = 32,
ntyp = 1,
ecutwfc = 35,
ecutrho = 208,
occupations = 'smearing',
smearing = 'mv',
degauss = 5.00000007E-002,
/
&ELECTRONS
diagonalization = 'david',
mixing_mode = plain,
mixing_beta = 6.99999988E-001,
conv_thr = 1.00000000E-007,
/
&IONS
ion_dynamics = 'bfgs',
/
&CELL
cell_dynamics = 'bfgs',
press = 0.00000000E+000,
cell_factor = 2.00000000E+000,
/
ATOMIC_SPECIES
Al  2.69815390E+001  Al.pbe-n-kjpaw_psl.0.1.UPF
ATOMIC_POSITIONS crystal
Al  -4.94047118E-003  3.90098741E-005  1.28356526E-003
Al  2.45404413E-001  2.48234494E-001  1.02945882E-003
Al  2.54998875E-001  3.98416364E-003  2.45896930E-001
Al  -4.60450638E-003  2.48480655E-001  2.45662983E-001
Al  2.72938845E-003  -2.22720940E-003  5.01561753E-001
Al  2.54893680E-001  2.50360252E-001  4.99845700E-001
Al  2.47050698E-001  4.99071024E-003  7.50638591E-001
Al  4.13764084E-003  2.49422069E-001  7.54381761E-001
Al  4.41937026E-003  4.99038588E-001  3.74814572E-005
Al  2.49869589E-001  7.45022676E-001  1.81745910E-003
Al  2.53281868E-001  5.00949704E-001  2.54908570E-001
Al  4.30549269E-003  7.50039438E-001  2.45943162E-001
Al  -2.42331206E-004  5.00125360E-001  4.95125464E-001
Al  2.48816259E-001  7.51511528E-001  5.04342351E-001
Al  2.49931016E-001  5.01000791E-001  7.50039765E-001
Al  -4.31550041E-003  7.48892861E-001  7.46679239E-001
Al  5.00690568E-001  -4.90029164E-003  -4.95282354E-003
Al  7.53418068E-001  2.49110488E-001  -1.24086725E-003
Al  7.49585100E-001  -3.71490298E-005  2.54280651E-001
Al  5.04990474E-001  2.50529624E-001  2.46470427E-001
Al  5.04755818E-001  -4.11484336E-003  4.97408738E-001
Al  7.45072859E-001  2.51174304E-001  4.99666910E-001
Al  7.50017185E-001  -4.52104687E-003  7.45092137E-001
Al  5.01882925E-001  2.49956561E-001  7.49936165E-001
Al  5.00637260E-001  5.00036358E-001  -2.28299608E-003
Al  7.50282072E-001  7.54728440E-001  -3.77405060E-005
Al  7.49962257E-001  4.95041428E-001  2.50354235E-001
Al  4.99054375E-001  7.50447673E-001  2.50304641E-001
Al  4.95123784E-001  4.98166497E-001  4.99671797E-001
Al  7.49907444E-001  7.45983353E-001  5.01433378E-001
Al  7.50060413E-001  4.99910517E-001  7.45121217E-001
Al  5.00016742E-001  7.49845599E-001  7.54932521E-001
K_POINTS automatic
2 2 2 1 1 1
