&CONTROL
restart_mode = 'from_scratch',
calculation = 'scf',
outdir = '/gpfs/bb/bxp912/scratch',
pseudo_dir = '/gpfs/bb/bxp912/pseudopotentials',
prefix = '3.00000000E-001',
etot_conv_thr = 1.00000000E-007,
forc_conv_thr = 1.00000000E-007,
nstep = 200,
tprnfor = .true.,
tstress = .true.,
disk_io = 'low',
/
&SYSTEM
ibrav = 14,
celldm(1) = 3.05001797E+001,
celldm(2) = 1.00000000E+000,
celldm(3) = 1.00000000E+000,
celldm(4) = 0.00000000E+000,
celldm(5) = 0.00000000E+000,
celldm(6) = 0.00000000E+000,
nat = 256,
ntyp = 1,
ecutwfc = 35,
ecutrho = 208,
occupations = 'smearing',
smearing = 'mv',
degauss = 5.00000007E-002,
/
&ELECTRONS
diagonalization = 'david',
mixing_mode = plain,
mixing_beta = 6.99999988E-001,
conv_thr = 1.00000000E-007,
/
&IONS
ion_dynamics = 'bfgs',
/
&CELL
cell_dynamics = 'bfgs',
press = 0.00000000E+000,
cell_factor = 2.00000000E+000,
/
ATOMIC_SPECIES
Al  2.69815390E+001  Al.pbe-n-kjpaw_psl.0.1.UPF
ATOMIC_POSITIONS crystal
Al  1.99607621E-003  -1.83132743E-004  -9.33359550E-006
Al  1.25399999E-001  1.23810718E-001  -2.32466695E-003
Al  1.27465600E-001  -2.28275397E-003  1.24548401E-001
Al  -8.62624413E-006  1.22612887E-001  1.25055098E-001
Al  -4.04750676E-005  7.48635779E-004  2.47574397E-001
Al  1.24297936E-001  1.25988457E-001  2.51502432E-001
Al  1.26703094E-001  -1.46923305E-004  3.74003563E-001
Al  1.81447569E-003  1.25008949E-001  3.75008438E-001
Al  1.56963117E-004  -2.44485247E-003  5.01293794E-001
Al  1.24525921E-001  1.24922105E-001  4.99981415E-001
Al  1.24945533E-001  1.43982514E-004  6.24170990E-001
Al  -1.75485954E-003  1.24917758E-001  6.27073503E-001
Al  6.63798229E-005  -5.64129823E-004  7.50008491E-001
Al  1.23913207E-001  1.23808574E-001  7.51741044E-001
Al  1.22927414E-001  1.78227505E-003  8.75286033E-001
Al  -2.44802501E-003  1.24755888E-001  8.75425103E-001
Al  2.15893958E-003  2.51905791E-001  1.72410397E-004
Al  1.24785609E-001  3.74177591E-001  1.96671575E-003
Al  1.24864046E-001  2.49973129E-001  1.24444744E-001
Al  9.24268503E-004  3.75371743E-001  1.25750561E-001
Al  -1.82854221E-005  2.50853479E-001  2.47502822E-001
Al  1.27406314E-001  3.73699884E-001  2.49980966E-001
Al  1.27350830E-001  2.50190696E-001  3.75156452E-001
Al  2.02870466E-003  3.72544192E-001  3.76181490E-001
Al  1.67469020E-003  2.52370444E-001  5.00066751E-001
Al  1.27016377E-001  3.72852779E-001  4.97626142E-001
Al  1.27289583E-001  2.49856941E-001  6.26096277E-001
Al  -1.77405523E-003  3.75149367E-001  6.27466781E-001
Al  1.39893739E-004  2.47932221E-001  7.51096206E-001
Al  1.22755527E-001  3.75232953E-001  7.52227961E-001
Al  1.26414527E-001  2.50170993E-001  8.74991629E-001
Al  -1.20279376E-004  3.77455041E-001  8.75671844E-001
Al  9.54417771E-006  5.00044929E-001  -2.48060911E-003
Al  1.22941294E-001  6.22678134E-001  1.52483279E-003
Al  1.25018491E-001  5.01711692E-001  1.25887387E-001
Al  -2.10525583E-003  6.25249784E-001  1.22523511E-001
Al  -4.44682626E-005  4.97719823E-001  2.50228436E-001
Al  1.24171088E-001  6.25017408E-001  2.50035446E-001
Al  1.24973846E-001  5.00019595E-001  3.73471338E-001
Al  -1.84665309E-005  6.24962194E-001  3.75753386E-001
Al  -6.10141986E-005  5.00862332E-001  4.99168629E-001
Al  1.26284453E-001  6.23468423E-001  4.99641356E-001
Al  1.22567112E-001  5.02107364E-001  6.25120565E-001
Al  1.99805021E-003  6.26626836E-001  6.24179061E-001
Al  1.01996940E-004  4.98310527E-001  7.49636062E-001
Al  1.24892102E-001  6.25664139E-001  7.49799093E-001
Al  1.25008536E-001  5.02410510E-001  8.73811750E-001
Al  -5.04350439E-004  6.25435564E-001  8.74982220E-001
Al  -1.94213150E-005  7.51173989E-001  1.05265793E-003
Al  1.27390891E-001  8.72830403E-001  -2.28636020E-004
Al  1.27343142E-001  7.49864560E-001  1.22520235E-001
Al  -1.30382603E-003  8.75622810E-001  1.25102324E-001
Al  2.33327048E-003  7.49788487E-001  2.50018878E-001
Al  1.24677895E-001  8.75151982E-001  2.47507619E-001
Al  1.25249858E-001  7.47654378E-001  3.75394904E-001
Al  1.59045773E-003  8.74978672E-001  3.74643443E-001
Al  -1.03981129E-004  7.48067755E-001  4.99925861E-001
Al  1.23096966E-001  8.76124273E-001  5.02391492E-001
Al  1.27066880E-001  7.49980860E-001  6.25552339E-001
Al  -1.31052439E-003  8.76982536E-001  6.24036487E-001
Al  -2.34938788E-003  7.50018163E-001  7.49982772E-001
Al  1.27266716E-001  8.75018129E-001  7.50444895E-001
Al  1.24977353E-001  7.50347973E-001  8.75009204E-001
Al  1.64374599E-004  8.76476747E-001  8.74956547E-001
Al  2.49480951E-001  -2.47147672E-003  -1.92501434E-005
Al  3.74981847E-001  1.27483750E-001  2.07813619E-005
Al  3.75234924E-001  2.49972205E-003  1.27499814E-001
Al  2.48133434E-001  1.27166342E-001  1.25008467E-001
Al  2.50280426E-001  5.88090288E-004  2.48563334E-001
Al  3.74785898E-001  1.25203712E-001  2.50074968E-001
Al  3.76037287E-001  -6.28143393E-004  3.74559425E-001
Al  2.51855610E-001  1.22636010E-001  3.74940298E-001
Al  2.47608643E-001  -6.39053245E-005  5.01983317E-001
Al  3.72923275E-001  1.26078897E-001  4.99890506E-001
Al  3.74847618E-001  -1.01978053E-003  6.25745231E-001
Al  2.52428617E-001  1.22799541E-001  6.24603282E-001
Al  2.50125761E-001  2.40136386E-003  7.50008930E-001
Al  3.73115481E-001  1.24976476E-001  7.52426692E-001
Al  3.73104728E-001  7.92909758E-004  8.77219429E-001
Al  2.49109944E-001  1.26339667E-001  8.74639235E-001
Al  2.50197761E-001  2.47529049E-001  1.86456391E-003
Al  3.74981144E-001  3.72924266E-001  -1.19527256E-004
Al  3.74980993E-001  2.50526749E-001  1.23752143E-001
Al  2.49892242E-001  3.74861218E-001  1.24156073E-001
Al  2.50203590E-001  2.52179994E-001  2.51046653E-001
Al  3.73995970E-001  3.72532697E-001  2.47588041E-001
Al  3.75242245E-001  2.50338049E-001  3.75773811E-001
Al  2.48986957E-001  3.74900271E-001  3.75130774E-001
Al  2.49579293E-001  2.51634139E-001  4.99812796E-001
Al  3.74024554E-001  3.72781052E-001  4.99961217E-001
Al  3.77481404E-001  2.50043511E-001  6.25022720E-001
Al  2.47626933E-001  3.74409482E-001  6.24927243E-001
Al  2.49790041E-001  2.49553015E-001  7.49589812E-001
Al  3.74901919E-001  3.74991614E-001  7.50060630E-001
Al  3.73985634E-001  2.48108217E-001  8.74744867E-001
Al  2.50170571E-001  3.74039789E-001  8.72549835E-001
Al  2.49831150E-001  5.00495787E-001  1.70710129E-004
Al  3.75294876E-001  6.24694091E-001  4.07522838E-004
Al  3.73460149E-001  4.99213065E-001  1.24697849E-001
Al  2.49393173E-001  6.25040766E-001  1.24454500E-001
Al  2.50549766E-001  5.00102902E-001  2.50063361E-001
Al  3.74981122E-001  6.24846718E-001  2.50047219E-001
Al  3.75602547E-001  5.02416837E-001  3.77433049E-001
Al  2.51939189E-001  6.24568800E-001  3.75585223E-001
Al  2.50142875E-001  4.99981166E-001  5.02326183E-001
Al  3.74854594E-001  6.24772000E-001  5.00171779E-001
Al  3.74981854E-001  4.99990885E-001  6.25218405E-001
Al  2.51671710E-001  6.25292129E-001  6.25018958E-001
Al  2.48354150E-001  5.01312396E-001  7.50669706E-001
Al  3.77494320E-001  6.24771908E-001  7.47515337E-001
Al  3.77331752E-001  5.00897007E-001  8.74131451E-001
Al  2.50039890E-001  6.27285690E-001  8.74132112E-001
Al  2.48762625E-001  7.49991121E-001  2.44838021E-003
Al  3.72500266E-001  8.74834615E-001  -4.65262130E-004
Al  3.75320735E-001  7.50009268E-001  1.22859266E-001
Al  2.48400901E-001  8.72766833E-001  1.23230369E-001
Al  2.50009038E-001  7.48555337E-001  2.49176216E-001
Al  3.77499756E-001  8.73100037E-001  2.51674634E-001
Al  3.75173777E-001  7.49157923E-001  3.75858372E-001
Al  2.50071838E-001  8.73519292E-001  3.75332448E-001
Al  2.47593204E-001  7.51935219E-001  5.01824421E-001
Al  3.74763990E-001  8.72549851E-001  5.00237735E-001
Al  3.77378941E-001  7.49745654E-001  6.25269566E-001
Al  2.50020777E-001  8.75078510E-001  6.24952862E-001
Al  2.47505408E-001  7.47519558E-001  7.47682838E-001
Al  3.73978707E-001  8.76744419E-001  7.52345804E-001
Al  3.77110635E-001  7.50255804E-001  8.74981882E-001
Al  2.50932648E-001  8.75980326E-001  8.73745086E-001
Al  5.01559416E-001  -4.18084733E-004  1.83480669E-005
Al  6.25172273E-001  1.27154029E-001  4.16916074E-004
Al  6.27481044E-001  -6.83001039E-004  1.25049376E-001
Al  5.02470593E-001  1.26607804E-001  1.23922582E-001
Al  4.97531545E-001  1.39985689E-003  2.49981366E-001
Al  6.25317586E-001  1.24901352E-001  2.50437796E-001
Al  6.25107078E-001  -1.61047904E-004  3.76661041E-001
Al  4.99991531E-001  1.27289860E-001  3.75061217E-001
Al  5.00081836E-001  -2.94085591E-005  4.99142641E-001
Al  6.23875340E-001  1.25027794E-001  4.99728623E-001
Al  6.22745340E-001  -9.29903501E-006  6.24943601E-001
Al  4.98278911E-001  1.26280745E-001  6.22564964E-001
Al  4.99638204E-001  6.19959149E-005  7.51238381E-001
Al  6.26179737E-001  1.24832979E-001  7.48352157E-001
Al  6.24978359E-001  1.90688481E-005  8.72568662E-001
Al  4.99945107E-001  1.24927122E-001  8.75187165E-001
Al  5.00830993E-001  2.50075652E-001  -2.44564383E-003
Al  6.22936918E-001  3.73642527E-001  -2.49913321E-003
Al  6.24981017E-001  2.49794321E-001  1.27351831E-001
Al  4.97535721E-001  3.74954932E-001  1.26695622E-001
Al  5.00180107E-001  2.51215837E-001  2.49840215E-001
Al  6.27103115E-001  3.76212471E-001  2.48943289E-001
Al  6.24981769E-001  2.48469742E-001  3.73797570E-001
Al  4.98472497E-001  3.74441042E-001  3.74991626E-001
Al  4.99707394E-001  2.47535608E-001  5.01603246E-001
Al  6.25507768E-001  3.75558596E-001  5.00008371E-001
Al  6.25901962E-001  2.50061902E-001  6.25263840E-001
Al  5.00020693E-001  3.75620385E-001  6.22514147E-001
Al  4.99731262E-001  2.50149269E-001  7.50018979E-001
Al  6.25151903E-001  3.75195665E-001  7.47511202E-001
Al  6.27221981E-001  2.50835042E-001  8.77172244E-001
Al  4.97952451E-001  3.75699632E-001  8.74933878E-001
Al  4.99737269E-001  4.99672763E-001  -2.20031251E-003
Al  6.25702304E-001  6.24852474E-001  2.47706016E-003
Al  6.26385849E-001  4.97500093E-001  1.27402758E-001
Al  5.01325094E-001  6.25024600E-001  1.23412037E-001
Al  4.97505431E-001  4.98204909E-001  2.52237180E-001
Al  6.22608362E-001  6.26416692E-001  2.52462068E-001
Al  6.26346939E-001  4.99871445E-001  3.74190506E-001
Al  5.02491799E-001  6.26393858E-001  3.75092199E-001
Al  5.00339468E-001  4.99618394E-001  4.99288550E-001
Al  6.24209580E-001  6.27485571E-001  4.99769781E-001
Al  6.26057715E-001  4.99864838E-001  6.24966290E-001
Al  4.98338657E-001  6.24935326E-001  6.25127696E-001
Al  5.00433394E-001  5.00030811E-001  7.49735437E-001
Al  6.22522832E-001  6.26806713E-001  7.47928741E-001
Al  6.25263143E-001  4.97662357E-001  8.75514261E-001
Al  5.00020710E-001  6.24981756E-001  8.77029059E-001
Al  5.00008454E-001  7.47836266E-001  5.03041092E-004
Al  6.27340704E-001  8.75038160E-001  -4.36622303E-005
Al  6.26340602E-001  7.50142577E-001  1.26735207E-001
Al  4.99710542E-001  8.75018300E-001  1.23160193E-001
Al  5.00171804E-001  7.48978794E-001  2.51738649E-001
Al  6.27498084E-001  8.74803920E-001  2.49652023E-001
Al  6.25230785E-001  7.50147188E-001  3.74474557E-001
Al  5.00018351E-001  8.76879462E-001  3.74403709E-001
Al  4.99524006E-001  7.52492724E-001  5.00489410E-001
Al  6.24981153E-001  8.74576473E-001  4.99981301E-001
Al  6.23902691E-001  7.51105032E-001  6.24503548E-001
Al  5.00396385E-001  8.76081102E-001  6.23418687E-001
Al  5.00039762E-001  7.49978613E-001  7.52374249E-001
Al  6.23415530E-001  8.75169536E-001  7.50059453E-001
Al  6.25513849E-001  7.48559416E-001  8.75031072E-001
Al  5.02421835E-001  8.75008375E-001  8.74370976E-001
Al  7.52454255E-001  1.20578581E-003  -2.68255143E-004
Al  8.74489398E-001  1.22830400E-001  1.28246904E-003
Al  8.77100042E-001  -3.18918288E-004  1.24257617E-001
Al  7.49642822E-001  1.25337396E-001  1.23486826E-001
Al  7.50487962E-001  -9.08424690E-006  2.49771338E-001
Al  8.75368274E-001  1.22841528E-001  2.49162467E-001
Al  8.72599093E-001  1.87134376E-005  3.75736473E-001
Al  7.49980732E-001  1.24643821E-001  3.76806773E-001
Al  7.51258051E-001  -4.97626413E-004  5.00111672E-001
Al  8.75018372E-001  1.25982384E-001  4.97500813E-001
Al  8.74965478E-001  2.04117779E-003  6.24781493E-001
Al  7.47823102E-001  1.24138986E-001  6.22607438E-001
Al  7.47919907E-001  -2.47120939E-003  7.50019196E-001
Al  8.75083859E-001  1.24980984E-001  7.49147673E-001
Al  8.75080108E-001  -1.88865232E-003  8.76549150E-001
Al  7.50276798E-001  1.25026251E-001  8.73604487E-001
Al  7.50018184E-001  2.50009159E-001  9.29577932E-005
Al  8.74533695E-001  3.76053962E-001  -3.56849506E-004
Al  8.76358015E-001  2.51966443E-001  1.27337076E-001
Al  7.51121136E-001  3.74924219E-001  1.22616143E-001
Al  7.49196673E-001  2.49712298E-001  2.47500215E-001
Al  8.75019102E-001  3.75263915E-001  2.50524201E-001
Al  8.75990591E-001  2.49991294E-001  3.74972712E-001
Al  7.50132461E-001  3.76225332E-001  3.75022373E-001
Al  7.49002975E-001  2.51807092E-001  4.99542968E-001
Al  8.75307249E-001  3.74981892E-001  4.97669932E-001
Al  8.75047785E-001  2.49979740E-001  6.24770028E-001
Al  7.50151793E-001  3.74955114E-001  6.25009510E-001
Al  7.49863835E-001  2.49934774E-001  7.49798896E-001
Al  8.76096338E-001  3.74981669E-001  7.49707645E-001
Al  8.76700577E-001  2.51391462E-001  8.75259551E-001
Al  7.50413348E-001  3.72773271E-001  8.76609223E-001
Al  7.52314838E-001  4.99981576E-001  1.43279622E-003
Al  8.73856335E-001  6.25018779E-001  -2.35409571E-003
Al  8.74185020E-001  5.00444851E-001  1.27475974E-001
Al  7.51520470E-001  6.27499076E-001  1.24991269E-001
Al  7.50018131E-001  4.98055480E-001  2.52489944E-001
Al  8.73333732E-001  6.24137232E-001  2.51515644E-001
Al  8.77430665E-001  5.01489623E-001  3.75128154E-001
Al  7.49738874E-001  6.24799324E-001  3.75516571E-001
Al  7.49990208E-001  5.02398886E-001  5.01937406E-001
Al  8.77472978E-001  6.25129704E-001  4.99561752E-001
Al  8.73075024E-001  5.01390153E-001  6.27171361E-001
Al  7.49991616E-001  6.24497460E-001  6.25752344E-001
Al  7.48099582E-001  4.98246650E-001  7.47547318E-001
Al  8.75009707E-001  6.27304767E-001  7.49508471E-001
Al  8.74963495E-001  5.02441923E-001  8.74197855E-001
Al  7.51563515E-001  6.24980384E-001  8.75139004E-001
Al  7.48838585E-001  7.49965664E-001  4.78647750E-005
Al  8.72502250E-001  8.76084562E-001  1.84378357E-005
Al  8.75123150E-001  7.50034766E-001  1.27499617E-001
Al  7.49959219E-001  8.74648092E-001  1.24868959E-001
Al  7.50568570E-001  7.49623048E-001  2.49981874E-001
Al  8.74947633E-001  8.75017834E-001  2.49552793E-001
Al  8.73646373E-001  7.49954989E-001  3.75009845E-001
Al  7.47649620E-001  8.74991067E-001  3.75585336E-001
Al  7.49891523E-001  7.48183067E-001  4.99909209E-001
Al  8.75039411E-001  8.74137369E-001  5.01725559E-001
Al  8.75976015E-001  7.51049082E-001  6.22961572E-001
Al  7.49956669E-001  8.74100172E-001  6.25049806E-001
Al  7.49981445E-001  7.50595862E-001  7.50018584E-001
Al  8.73711405E-001  8.75051826E-001  7.50343225E-001
Al  8.74978157E-001  7.52499626E-001  8.75192904E-001
Al  7.50907911E-001  8.74490757E-001  8.74303050E-001
K_POINTS automatic
2 2 2 1 1 1
