&CONTROL
restart_mode = 'from_scratch',
calculation = 'scf',
outdir = '/gpfs/bb/bxp912/scratch',
pseudo_dir = '/gpfs/bb/bxp912/pseudopotentials',
prefix = '1.44000000E-001',
etot_conv_thr = 1.00000000E-007,
forc_conv_thr = 1.00000000E-007,
nstep = 200,
tprnfor = .true.,
tstress = .true.,
disk_io = 'low',
/
&SYSTEM
ibrav = 14,
celldm(1) = 8.07000000E+000,
celldm(2) = 1.00000000E+000,
celldm(3) = 1.00000000E+000,
celldm(4) = 0.00000000E+000,
celldm(5) = 0.00000000E+000,
celldm(6) = 0.00000000E+000,
nat = 32,
ntyp = 1,
ecutwfc = 35,
ecutrho = 208,
occupations = 'smearing',
smearing = 'mv',
degauss = 5.00000007E-002,
/
&ELECTRONS
diagonalization = 'david',
mixing_mode = plain,
mixing_beta = 6.99999988E-001,
conv_thr = 1.00000000E-007,
/
&IONS
ion_dynamics = 'bfgs',
/
&CELL
cell_dynamics = 'bfgs',
press = 0.00000000E+000,
cell_factor = 2.00000000E+000,
/
ATOMIC_SPECIES
Al  2.69815390E+001  Al.pbe-n-kjpaw_psl.0.1.UPF
ATOMIC_POSITIONS crystal
Al  6.11359769E-004  -4.98875928E-003  5.06696844E-005
Al  2.51021787E-001  2.45477790E-001  -1.67002952E-004
Al  2.45504009E-001  -3.98827645E-004  2.50240956E-001
Al  2.92317225E-004  2.54969280E-001  2.54998779E-001
Al  -4.26760484E-003  -1.03815223E-003  4.99962430E-001
Al  2.50869913E-001  2.49895492E-001  5.00017501E-001
Al  2.51807793E-001  4.93243683E-003  7.49963775E-001
Al  -5.51857705E-004  2.45131807E-001  7.51199203E-001
Al  2.84866445E-003  4.99687443E-001  -2.71437354E-003
Al  2.52698469E-001  7.49983055E-001  -1.69520929E-003
Al  2.45011627E-001  4.97333164E-001  2.50442989E-001
Al  4.24482090E-003  7.54997346E-001  2.50017449E-001
Al  2.88429678E-003  4.99873177E-001  4.98417375E-001
Al  2.49282643E-001  7.45699083E-001  4.96594212E-001
Al  2.46130897E-001  5.01824031E-001  7.50281520E-001
Al  8.44099629E-004  7.50738601E-001  7.52385809E-001
Al  5.01402014E-001  -1.76380571E-005  4.86609417E-003
Al  7.50638995E-001  2.49734171E-001  1.15107371E-003
Al  7.49845145E-001  1.26417967E-003  2.54066889E-001
Al  4.99895299E-001  2.50236143E-001  2.49221007E-001
Al  5.00728608E-001  4.07536882E-003  5.00210937E-001
Al  7.49898121E-001  2.49910463E-001  5.04563954E-001
Al  7.54776208E-001  8.07563760E-005  7.50571420E-001
Al  4.99962059E-001  2.49915352E-001  7.52866854E-001
Al  5.00251662E-001  5.02833445E-001  5.67603602E-004
Al  7.49951735E-001  7.50036231E-001  -2.84440582E-003
Al  7.50068077E-001  5.00039013E-001  2.48737751E-001
Al  4.99272753E-001  7.47387543E-001  2.50126404E-001
Al  4.99959407E-001  4.95520938E-001  4.95096094E-001
Al  7.51258346E-001  7.54724148E-001  4.96192693E-001
Al  7.51320659E-001  5.00037189E-001  7.50036582E-001
Al  5.03679778E-001  7.48094481E-001  7.53505826E-001
K_POINTS automatic
2 2 2 1 1 1
