&CONTROL
restart_mode = 'from_scratch',
calculation = 'scf',
outdir = '/gpfs/bb/bxp912/scratch',
pseudo_dir = '/gpfs/bb/bxp912/pseudopotentials',
prefix = '3.00000000E-001',
etot_conv_thr = 1.00000000E-007,
forc_conv_thr = 1.00000000E-007,
nstep = 200,
tprnfor = .true.,
tstress = .true.,
disk_io = 'low',
/
&SYSTEM
ibrav = 14,
celldm(1) = 3.05001797E+001,
celldm(2) = 1.00000000E+000,
celldm(3) = 1.00000000E+000,
celldm(4) = 0.00000000E+000,
celldm(5) = 0.00000000E+000,
celldm(6) = 0.00000000E+000,
nat = 256,
ntyp = 1,
ecutwfc = 35,
ecutrho = 208,
occupations = 'smearing',
smearing = 'mv',
degauss = 5.00000007E-002,
/
&ELECTRONS
diagonalization = 'david',
mixing_mode = plain,
mixing_beta = 6.99999988E-001,
conv_thr = 1.00000000E-007,
/
&IONS
ion_dynamics = 'bfgs',
/
&CELL
cell_dynamics = 'bfgs',
press = 0.00000000E+000,
cell_factor = 2.00000000E+000,
/
ATOMIC_SPECIES
Al  2.69815390E+001  Al.pbe-n-kjpaw_psl.0.1.UPF
ATOMIC_POSITIONS crystal
Al  -2.81216863E-004  -3.75340047E-005  2.43332480E-003
Al  1.25075509E-001  1.24824805E-001  2.73476559E-004
Al  1.24456973E-001  -2.45173815E-003  1.26076842E-001
Al  -1.89128558E-005  1.24523706E-001  1.25089064E-001
Al  -1.35755052E-003  3.46713114E-004  2.49752524E-001
Al  1.25444587E-001  1.27027045E-001  2.50333679E-001
Al  1.25641034E-001  1.35710305E-003  3.74872318E-001
Al  5.95552590E-004  1.23564847E-001  3.73564952E-001
Al  -8.62795759E-004  -7.14371266E-004  4.98692781E-001
Al  1.25573222E-001  1.24132260E-001  4.99353075E-001
Al  1.27425873E-001  2.49014548E-003  6.25698234E-001
Al  5.42185024E-005  1.25753082E-001  6.24359120E-001
Al  -2.21661513E-004  1.97666253E-003  7.50276035E-001
Al  1.22541725E-001  1.27470255E-001  7.49874658E-001
Al  1.27428626E-001  -2.45511818E-003  8.74990455E-001
Al  -3.34491026E-005  1.24591011E-001  8.74797475E-001
Al  -8.14712142E-004  2.47589326E-001  -2.06647811E-003
Al  1.24843741E-001  3.74881691E-001  -2.43906876E-003
Al  1.24817399E-001  2.51641245E-001  1.24890766E-001
Al  1.61199732E-003  3.74981909E-001  1.25083807E-001
Al  2.25150404E-003  2.52048621E-001  2.47679356E-001
Al  1.27211019E-001  3.75294716E-001  2.49790690E-001
Al  1.22912590E-001  2.49953171E-001  3.75630728E-001
Al  1.81358798E-005  3.72981270E-001  3.77150523E-001
Al  3.15492003E-004  2.49768707E-001  5.00048461E-001
Al  1.27453514E-001  3.74425838E-001  4.98576756E-001
Al  1.26882962E-001  2.50052914E-001  6.23449386E-001
Al  2.43757543E-004  3.72571596E-001  6.24963259E-001
Al  -8.39295311E-006  2.48672236E-001  7.49981831E-001
Al  1.25382767E-001  3.74780480E-001  7.47644968E-001
Al  1.26572826E-001  2.51746194E-001  8.74007219E-001
Al  2.27431326E-005  3.75758290E-001  8.74851007E-001
Al  7.94814440E-004  5.00311650E-001  2.58282726E-005
Al  1.26525585E-001  6.22985681E-001  4.84300021E-004
Al  1.24980768E-001  5.00127843E-001  1.24991591E-001
Al  -2.19707707E-003  6.22587510E-001  1.24411163E-001
Al  2.47890390E-003  4.99938162E-001  2.50072384E-001
Al  1.25046848E-001  6.24704866E-001  2.50063549E-001
Al  1.25081674E-001  5.02264831E-001  3.75072906E-001
Al  1.25539026E-004  6.22556207E-001  3.73277160E-001
Al  1.96212398E-003  5.02494838E-001  4.97772984E-001
Al  1.22722016E-001  6.27367140E-001  5.02427316E-001
Al  1.24977646E-001  4.99830410E-001  6.22506515E-001
Al  -4.50123348E-004  6.23829230E-001  6.25176304E-001
Al  6.15456572E-004  5.01016305E-001  7.52485873E-001
Al  1.24979982E-001  6.26969718E-001  7.49968502E-001
Al  1.25059000E-001  4.98148472E-001  8.75008904E-001
Al  2.46104379E-003  6.25088858E-001  8.76111227E-001
Al  6.20601243E-005  7.47889752E-001  -3.13546659E-005
Al  1.24981893E-001  8.75120594E-001  2.18113801E-004
Al  1.25420417E-001  7.51105015E-001  1.24569420E-001
Al  6.92144529E-004  8.74313110E-001  1.25051057E-001
Al  -2.09510728E-004  7.48674956E-001  2.51487208E-001
Al  1.26138878E-001  8.74991081E-001  2.50079178E-001
Al  1.23921186E-001  7.49958787E-001  3.74407412E-001
Al  -1.95904453E-005  8.74991468E-001  3.73502423E-001
Al  2.35619409E-003  7.50137691E-001  5.01104197E-001
Al  1.25029704E-001  8.76290978E-001  4.99991611E-001
Al  1.26714163E-001  7.50008437E-001  6.25462149E-001
Al  2.13826598E-003  8.75944707E-001  6.25051813E-001
Al  -4.96224450E-005  7.49637287E-001  7.51979157E-001
Al  1.25067229E-001  8.75179031E-001  7.49315006E-001
Al  1.24742940E-001  7.50079097E-001  8.74070187E-001
Al  2.08502347E-004  8.77329042E-001  8.75702809E-001
Al  2.47557195E-001  -2.45630435E-003  -7.91290803E-004
Al  3.75240010E-001  1.27478922E-001  -2.49364436E-003
Al  3.73398867E-001  1.83232129E-005  1.24958455E-001
Al  2.49585388E-001  1.22548022E-001  1.24848669E-001
Al  2.50520887E-001  -9.76124460E-004  2.50018240E-001
Al  3.74213547E-001  1.27232191E-001  2.49802750E-001
Al  3.74958191E-001  -9.03115270E-004  3.75207186E-001
Al  2.50272162E-001  1.25116847E-001  3.72632204E-001
Al  2.52151846E-001  -7.77497091E-004  4.99304114E-001
Al  3.73256419E-001  1.23834307E-001  4.99476457E-001
Al  3.75018121E-001  -1.79973519E-003  6.25228745E-001
Al  2.49416074E-001  1.24991284E-001  6.22500081E-001
Al  2.52272884E-001  -2.40436507E-004  7.50018506E-001
Al  3.73863180E-001  1.25448504E-001  7.49979843E-001
Al  3.74057593E-001  6.74314578E-004  8.75018151E-001
Al  2.52237278E-001  1.26988163E-001  8.74981859E-001
Al  2.50974312E-001  2.50018309E-001  -1.91187386E-005
Al  3.75201967E-001  3.74069843E-001  -1.51504977E-004
Al  3.75281206E-001  2.49712353E-001  1.25181219E-001
Al  2.49977011E-001  3.76967462E-001  1.24953218E-001
Al  2.49430167E-001  2.49886339E-001  2.51058461E-001
Al  3.72551347E-001  3.76957155E-001  2.49942287E-001
Al  3.77179512E-001  2.51330660E-001  3.75257342E-001
Al  2.49231843E-001  3.75018735E-001  3.75048794E-001
Al  2.50018881E-001  2.49980571E-001  4.99979435E-001
Al  3.74078634E-001  3.73525229E-001  4.97500181E-001
Al  3.74990507E-001  2.51538332E-001  6.26844337E-001
Al  2.50551943E-001  3.76980863E-001  6.24888770E-001
Al  2.49366494E-001  2.49991596E-001  7.50009729E-001
Al  3.74046390E-001  3.74928701E-001  7.50128582E-001
Al  3.74903688E-001  2.49768613E-001  8.77489226E-001
Al  2.51861960E-001  3.75999919E-001  8.75046470E-001
Al  2.49680153E-001  5.02491761E-001  -1.16451646E-004
Al  3.74981840E-001  6.22585096E-001  2.19850440E-003
Al  3.75335098E-001  4.98643421E-001  1.25330594E-001
Al  2.49749663E-001  6.24962943E-001  1.25107532E-001
Al  2.51200328E-001  4.99990478E-001  2.50018999E-001
Al  3.75008416E-001  6.22500606E-001  2.47762416E-001
Al  3.77078472E-001  5.02381971E-001  3.72973531E-001
Al  2.50722277E-001  6.25074727E-001  3.74767958E-001
Al  2.51432610E-001  4.99937908E-001  5.01654945E-001
Al  3.74378642E-001  6.23052815E-001  4.98292573E-001
Al  3.76306210E-001  5.01581405E-001  6.25036809E-001
Al  2.49679230E-001  6.25243183E-001  6.25041205E-001
Al  2.52254772E-001  5.00377537E-001  7.48739681E-001
Al  3.73874434E-001  6.24746579E-001  7.50238563E-001
Al  3.75110518E-001  4.99070705E-001  8.75008404E-001
Al  2.49981418E-001  6.25018919E-001  8.74972191E-001
Al  2.49852115E-001  7.50266722E-001  -2.01319377E-003
Al  3.72545815E-001  8.77153708E-001  -3.01479370E-004
Al  3.74689057E-001  7.52364491E-001  1.24957332E-001
Al  2.47638613E-001  8.74119582E-001  1.25290575E-001
Al  2.49815594E-001  7.49719268E-001  2.52240958E-001
Al  3.74991596E-001  8.73788181E-001  2.50691621E-001
Al  3.77275658E-001  7.51826323E-001  3.74570167E-001
Al  2.47970761E-001  8.77478216E-001  3.73051768E-001
Al  2.50805472E-001  7.49979858E-001  4.99492189E-001
Al  3.72680883E-001  8.74309797E-001  5.00437670E-001
Al  3.74919584E-001  7.50664393E-001  6.27215726E-001
Al  2.49914926E-001  8.73122962E-001  6.25107237E-001
Al  2.50057569E-001  7.50415409E-001  7.48184316E-001
Al  3.73794670E-001  8.76212803E-001  7.52409398E-001
Al  3.75089273E-001  7.49075710E-001  8.73423151E-001
Al  2.49913510E-001  8.72890749E-001  8.75263820E-001
Al  4.99979493E-001  -8.37758569E-006  2.49051300E-003
Al  6.25018801E-001  1.22572721E-001  1.24371516E-003
Al  6.27027499E-001  6.32651589E-004  1.25020227E-001
Al  4.99137810E-001  1.24945721E-001  1.24529675E-001
Al  4.99647089E-001  -1.52514705E-003  2.49990413E-001
Al  6.27460881E-001  1.26556366E-001  2.49933331E-001
Al  6.26122806E-001  -7.72615566E-004  3.74952379E-001
Al  5.00229236E-001  1.25717791E-001  3.77006585E-001
Al  4.99924543E-001  -2.12087551E-003  4.98369628E-001
Al  6.24972250E-001  1.24981718E-001  5.01682945E-001
Al  6.22932621E-001  6.48776048E-004  6.25937098E-001
Al  5.00038433E-001  1.27451613E-001  6.24981655E-001
Al  5.00037292E-001  8.05955129E-004  7.50900152E-001
Al  6.22711901E-001  1.22842284E-001  7.50107834E-001
Al  6.24862352E-001  -8.46080047E-005  8.75503514E-001
Al  4.99970009E-001  1.26415877E-001  8.74981856E-001
Al  4.99982048E-001  2.49128188E-001  -2.40220575E-003
Al  6.22756951E-001  3.75171241E-001  1.67539723E-003
Al  6.24991303E-001  2.48709808E-001  1.25158677E-001
Al  4.99934815E-001  3.72503397E-001  1.22697346E-001
Al  5.02316370E-001  2.49961306E-001  2.50018141E-001
Al  6.23665564E-001  3.75072394E-001  2.50218126E-001
Al  6.27287103E-001  2.49320571E-001  3.72773162E-001
Al  4.97525843E-001  3.72500168E-001  3.72510473E-001
Al  5.01310093E-001  2.52334172E-001  5.02498961E-001
Al  6.24948904E-001  3.75713448E-001  4.98805580E-001
Al  6.23152083E-001  2.52014838E-001  6.27395015E-001
Al  4.99952410E-001  3.72854412E-001  6.23312633E-001
Al  5.02148020E-001  2.49646947E-001  7.49222510E-001
Al  6.22896410E-001  3.75106609E-001  7.52312644E-001
Al  6.24747485E-001  2.47637021E-001  8.74922142E-001
Al  4.99981882E-001  3.72548480E-001  8.74477375E-001
Al  4.99797622E-001  4.97634964E-001  8.47032844E-004
Al  6.24879093E-001  6.25018109E-001  -5.27314278E-004
Al  6.25152470E-001  5.01337333E-001  1.22632309E-001
Al  4.99175376E-001  6.26393023E-001  1.22661643E-001
Al  5.02482191E-001  5.00008384E-001  2.49960470E-001
Al  6.25018118E-001  6.26482553E-001  2.48027277E-001
Al  6.25460706E-001  5.01681109E-001  3.75626873E-001
Al  5.00018433E-001  6.24385910E-001  3.77449205E-001
Al  5.00848512E-001  5.02369731E-001  5.00974473E-001
Al  6.26992558E-001  6.27163259E-001  4.99889547E-001
Al  6.24620931E-001  5.00647147E-001  6.23310129E-001
Al  4.98758158E-001  6.27072113E-001  6.24981339E-001
Al  5.01710157E-001  4.99022830E-001  7.47535697E-001
Al  6.24597377E-001  6.25030255E-001  7.49981511E-001
Al  6.25039923E-001  5.02320844E-001  8.75644473E-001
Al  5.02185002E-001  6.23889373E-001  8.75083441E-001
Al  5.00018390E-001  7.51821454E-001  1.55674425E-003
Al  6.22523093E-001  8.75247658E-001  -2.05312557E-003
Al  6.24931208E-001  7.50008885E-001  1.25302832E-001
Al  4.98620881E-001  8.74119411E-001  1.25102103E-001
Al  5.00091626E-001  7.52035149E-001  2.50019137E-001
Al  6.24971400E-001  8.74963632E-001  2.51389593E-001
Al  6.24577950E-001  7.48989587E-001  3.74005524E-001
Al  5.02174896E-001  8.75229159E-001  3.75046541E-001
Al  4.99744316E-001  7.50158579E-001  4.97554041E-001
Al  6.25019932E-001  8.74981089E-001  5.00185229E-001
Al  6.26046392E-001  7.50018111E-001  6.24970772E-001
Al  5.00031240E-001  8.76980192E-001  6.25018549E-001
Al  5.02442330E-001  7.50019179E-001  7.50281058E-001
Al  6.24963205E-001  8.76545003E-001  7.50179517E-001
Al  6.24204778E-001  7.49593356E-001  8.75008383E-001
Al  5.02432295E-001  8.75113206E-001  8.75684313E-001
Al  7.50711340E-001  -3.46247102E-004  1.08762107E-004
Al  8.76080781E-001  1.27089447E-001  -6.99247139E-004
Al  8.77317558E-001  -8.05228483E-004  1.24965178E-001
Al  7.49856038E-001  1.25836604E-001  1.23972761E-001
Al  7.52141529E-001  -5.67431762E-004  2.49980227E-001
Al  8.77438956E-001  1.26061582E-001  2.49845192E-001
Al  8.75008375E-001  4.96661205E-005  3.75009538E-001
Al  7.48042103E-001  1.24919613E-001  3.75287269E-001
Al  7.49981880E-001  -1.25281697E-003  4.98692754E-001
Al  8.74785055E-001  1.23910069E-001  5.00009537E-001
Al  8.76697186E-001  -2.43835207E-003  6.23881565E-001
Al  7.50018152E-001  1.26450049E-001  6.26647914E-001
Al  7.47716788E-001  2.39608940E-005  7.49991490E-001
Al  8.75584844E-001  1.24714041E-001  7.50732602E-001
Al  8.75132640E-001  2.05853737E-003  8.74991374E-001
Al  7.50020519E-001  1.24105531E-001  8.75202972E-001
Al  7.49981618E-001  2.49031887E-001  -2.41304245E-003
Al  8.76062583E-001  3.77392985E-001  -2.29098519E-003
Al  8.76123019E-001  2.49209802E-001  1.26447152E-001
Al  7.50129757E-001  3.76410702E-001  1.22564426E-001
Al  7.50018186E-001  2.47529143E-001  2.50008651E-001
Al  8.75094039E-001  3.75156777E-001  2.49066589E-001
Al  8.77150327E-001  2.50991553E-001  3.75009545E-001
Al  7.48811534E-001  3.74673492E-001  3.74991578E-001
Al  7.48154591E-001  2.51975420E-001  4.99470982E-001
Al  8.76804192E-001  3.73959186E-001  5.01755566E-001
Al  8.75047361E-001  2.47807542E-001  6.25186393E-001
Al  7.49853202E-001  3.75018732E-001  6.24954850E-001
Al  7.50905443E-001  2.50479764E-001  7.49870787E-001
Al  8.76078746E-001  3.74018768E-001  7.51795353E-001
Al  8.76491079E-001  2.48343576E-001  8.74566233E-001
Al  7.47938091E-001  3.74990710E-001  8.75105103E-001
Al  7.49680947E-001  4.99925077E-001  1.99212073E-003
Al  8.75086134E-001  6.24514291E-001  -2.89785039E-004
Al  8.76237044E-001  5.00008768E-001  1.27484975E-001
Al  7.51958816E-001  6.24797864E-001  1.24801020E-001
Al  7.50194446E-001  5.02246865E-001  2.49981403E-001
Al  8.77087429E-001  6.24878138E-001  2.47500024E-001
Al  8.75044412E-001  5.02164293E-001  3.74981585E-001
Al  7.48248403E-001  6.24716938E-001  3.75009587E-001
Al  7.52352127E-001  5.00555065E-001  4.99980624E-001
Al  8.72852061E-001  6.22500664E-001  5.00096935E-001
Al  8.72576821E-001  4.99901174E-001  6.24321856E-001
Al  7.52360862E-001  6.24980404E-001  6.24981549E-001
Al  7.48386534E-001  5.02277693E-001  7.48501909E-001
Al  8.75105707E-001  6.25018877E-001  7.50027961E-001
Al  8.76497868E-001  5.01499986E-001  8.76804135E-001
Al  7.47676475E-001  6.24991560E-001  8.75070202E-001
Al  7.49980243E-001  7.52408724E-001  -7.88624353E-004
Al  8.75377714E-001  8.72500037E-001  1.33945129E-003
Al  8.72814261E-001  7.52290808E-001  1.23460430E-001
Al  7.49505712E-001  8.72559250E-001  1.25901619E-001
Al  7.50188435E-001  7.51194387E-001  2.49963087E-001
Al  8.74740523E-001  8.75235206E-001  2.50040036E-001
Al  8.73683742E-001  7.49644812E-001  3.72504088E-001
Al  7.50560436E-001  8.74928147E-001  3.74972390E-001
Al  7.50028061E-001  7.51283689E-001  5.00018994E-001
Al  8.74664714E-001  8.77475761E-001  5.00165214E-001
Al  8.76665123E-001  7.50920843E-001  6.23396003E-001
Al  7.48653016E-001  8.75064094E-001  6.25781163E-001
Al  7.50029976E-001  7.49642607E-001  7.47566866E-001
Al  8.77124816E-001  8.77233161E-001  7.47709854E-001
Al  8.75021787E-001  7.49788163E-001  8.74991030E-001
Al  7.50053982E-001  8.74869457E-001  8.74947063E-001
K_POINTS automatic
2 2 2 1 1 1
