&CONTROL
restart_mode = 'from_scratch',
calculation = 'scf',
outdir = '/gpfs/bb/bxp912/scratch',
pseudo_dir = '/gpfs/bb/bxp912/pseudopotentials',
prefix = '1.44000000E-001',
etot_conv_thr = 1.00000000E-007,
forc_conv_thr = 1.00000000E-007,
nstep = 200,
tprnfor = .true.,
tstress = .true.,
disk_io = 'low',
/
&SYSTEM
ibrav = 14,
celldm(1) = 8.07000000E+000,
celldm(2) = 1.00000000E+000,
celldm(3) = 1.00000000E+000,
celldm(4) = 0.00000000E+000,
celldm(5) = 0.00000000E+000,
celldm(6) = 0.00000000E+000,
nat = 32,
ntyp = 1,
ecutwfc = 35,
ecutrho = 208,
occupations = 'smearing',
smearing = 'mv',
degauss = 5.00000007E-002,
/
&ELECTRONS
diagonalization = 'david',
mixing_mode = plain,
mixing_beta = 6.99999988E-001,
conv_thr = 1.00000000E-007,
/
&IONS
ion_dynamics = 'bfgs',
/
&CELL
cell_dynamics = 'bfgs',
press = 0.00000000E+000,
cell_factor = 2.00000000E+000,
/
ATOMIC_SPECIES
Al  2.69815390E+001  Al.pbe-n-kjpaw_psl.0.1.UPF
ATOMIC_POSITIONS crystal
Al  -1.96896704E-005  1.89069401E-004  2.03558767E-003
Al  2.47753728E-001  2.50036299E-001  3.77232826E-003
Al  2.50311476E-001  -4.84413841E-003  2.50943427E-001
Al  -3.61421653E-003  2.53943021E-001  2.52933315E-001
Al  -4.47921151E-004  -1.34998761E-003  4.96318207E-001
Al  2.50069053E-001  2.49934087E-001  4.99983231E-001
Al  2.52175754E-001  1.83160606E-003  7.50120812E-001
Al  3.63510740E-003  2.48991684E-001  7.50263990E-001
Al  1.68928696E-005  4.98009961E-001  4.99856579E-003
Al  2.48380968E-001  7.45434218E-001  8.32891783E-004
Al  2.49914869E-001  4.98390549E-001  2.51213366E-001
Al  -3.68751457E-003  7.51238186E-001  2.50019215E-001
Al  1.24262263E-003  5.01268790E-001  5.00157865E-001
Al  2.50877817E-001  7.53772881E-001  5.01431011E-001
Al  2.50727068E-001  5.00153245E-001  7.53704338E-001
Al  4.82286819E-003  7.54613581E-001  7.50282713E-001
Al  5.02184634E-001  -4.79562128E-003  -4.08612501E-003
Al  7.50036253E-001  2.50034062E-001  1.73972169E-004
Al  7.50233048E-001  -4.73117238E-003  2.53518038E-001
Al  4.99962916E-001  2.49919631E-001  2.45105843E-001
Al  5.00036264E-001  -2.88642463E-003  5.02889291E-001
Al  7.50401490E-001  2.45138344E-001  4.99359566E-001
Al  7.48924000E-001  1.70235810E-005  7.49980421E-001
Al  5.04603757E-001  2.48669766E-001  7.48733530E-001
Al  5.00100667E-001  4.95034091E-001  -1.23023762E-003
Al  7.49893061E-001  7.45365874E-001  9.73107346E-005
Al  7.46915905E-001  5.03015646E-001  2.50487965E-001
Al  4.97096150E-001  7.53911688E-001  2.49548869E-001
Al  5.04969068E-001  5.01954219E-001  4.95416826E-001
Al  7.46611242E-001  7.48317838E-001  4.99327535E-001
Al  7.49963768E-001  4.95765971E-001  7.51085137E-001
Al  4.95221505E-001  7.49980624E-001  7.54827910E-001
K_POINTS automatic
2 2 2 1 1 1
