&CONTROL
restart_mode = 'from_scratch',
calculation = 'scf',
outdir = '/gpfs/bb/bxp912/scratch',
pseudo_dir = '/gpfs/bb/bxp912/pseudopotentials',
prefix = '1.44000000E-001',
etot_conv_thr = 1.00000000E-007,
forc_conv_thr = 1.00000000E-007,
nstep = 200,
tprnfor = .true.,
tstress = .true.,
disk_io = 'low',
/
&SYSTEM
ibrav = 14,
celldm(1) = 8.07000000E+000,
celldm(2) = 1.00000000E+000,
celldm(3) = 1.00000000E+000,
celldm(4) = 0.00000000E+000,
celldm(5) = 0.00000000E+000,
celldm(6) = 0.00000000E+000,
nat = 32,
ntyp = 1,
ecutwfc = 35,
ecutrho = 208,
occupations = 'smearing',
smearing = 'mv',
degauss = 5.00000007E-002,
/
&ELECTRONS
diagonalization = 'david',
mixing_mode = plain,
mixing_beta = 6.99999988E-001,
conv_thr = 1.00000000E-007,
/
&IONS
ion_dynamics = 'bfgs',
/
&CELL
cell_dynamics = 'bfgs',
press = 0.00000000E+000,
cell_factor = 2.00000000E+000,
/
ATOMIC_SPECIES
Al  2.69815390E+001  Al.pbe-n-kjpaw_psl.0.1.UPF
ATOMIC_POSITIONS crystal
Al  -4.74055763E-003  -3.71853859E-005  -6.65877355E-004
Al  2.46764916E-001  2.51985496E-001  -6.61472216E-004
Al  2.54803973E-001  -4.13029676E-003  2.51008507E-001
Al  -7.96175827E-004  2.50037165E-001  2.50147492E-001
Al  4.49688699E-003  -1.08688730E-004  4.99224706E-001
Al  2.54589778E-001  2.46762431E-001  5.00018896E-001
Al  2.49856494E-001  2.70199200E-004  7.54287390E-001
Al  1.23945916E-003  2.53938361E-001  7.51045885E-001
Al  -6.70921305E-004  4.95002263E-001  -5.56660843E-004
Al  2.49877685E-001  7.49782519E-001  -4.74676982E-003
Al  2.51339636E-001  4.97817097E-001  2.46024549E-001
Al  -2.90488361E-003  7.54814294E-001  2.45138618E-001
Al  -4.17494593E-004  5.02368866E-001  5.03356445E-001
Al  2.52502185E-001  7.49964790E-001  4.99963724E-001
Al  2.48344917E-001  5.04845232E-001  7.54341959E-001
Al  2.40740975E-003  7.45805307E-001  7.45067801E-001
Al  5.00017671E-001  -3.99506778E-005  1.31399021E-003
Al  7.47116729E-001  2.53713303E-001  1.80955510E-003
Al  7.54927785E-001  2.57582488E-004  2.49143570E-001
Al  5.00219956E-001  2.45005401E-001  2.53742654E-001
Al  4.99258680E-001  -1.71054872E-005  5.00363526E-001
Al  7.50522799E-001  2.54998215E-001  4.99798728E-001
Al  7.53848665E-001  2.18806306E-004  7.50195106E-001
Al  5.00121754E-001  2.50476351E-001  7.46383836E-001
Al  5.03514485E-001  4.95192441E-001  4.47871408E-003
Al  7.49702136E-001  7.45665969E-001  3.81806676E-003
Al  7.53972106E-001  5.02989018E-001  2.53201712E-001
Al  5.00045871E-001  7.45100117E-001  2.49806466E-001
Al  5.03430125E-001  4.99832828E-001  5.04950460E-001
Al  7.54969623E-001  7.49905632E-001  4.95468200E-001
Al  7.54997938E-001  5.00057182E-001  7.47263968E-001
Al  5.02948211E-001  7.45006898E-001  7.50018210E-001
K_POINTS automatic
2 2 2 1 1 1
