&CONTROL
restart_mode = 'from_scratch',
calculation = 'scf',
outdir = '/gpfs/bb/bxp912/scratch',
pseudo_dir = '/gpfs/bb/bxp912/pseudopotentials',
prefix = '1.44000000E-001',
etot_conv_thr = 1.00000000E-007,
forc_conv_thr = 1.00000000E-007,
nstep = 200,
tprnfor = .true.,
tstress = .true.,
disk_io = 'low',
/
&SYSTEM
ibrav = 14,
celldm(1) = 8.07000000E+000,
celldm(2) = 1.00000000E+000,
celldm(3) = 1.00000000E+000,
celldm(4) = 0.00000000E+000,
celldm(5) = 0.00000000E+000,
celldm(6) = 0.00000000E+000,
nat = 32,
ntyp = 1,
ecutwfc = 35,
ecutrho = 208,
occupations = 'smearing',
smearing = 'mv',
degauss = 5.00000007E-002,
/
&ELECTRONS
diagonalization = 'david',
mixing_mode = plain,
mixing_beta = 6.99999988E-001,
conv_thr = 1.00000000E-007,
/
&IONS
ion_dynamics = 'bfgs',
/
&CELL
cell_dynamics = 'bfgs',
press = 0.00000000E+000,
cell_factor = 2.00000000E+000,
/
ATOMIC_SPECIES
Al  2.69815390E+001  Al.pbe-n-kjpaw_psl.0.1.UPF
ATOMIC_POSITIONS crystal
Al  -2.48986951E-004  1.84160504E-005  9.92371527E-004
Al  2.50834366E-001  2.49517964E-001  -4.59827277E-005
Al  2.52426206E-001  1.10106846E-003  2.49890056E-001
Al  -1.66001765E-003  2.47789872E-001  2.54806221E-001
Al  4.72572606E-004  -8.33373772E-005  4.99961713E-001
Al  2.54895123E-001  2.50395609E-001  5.03947597E-001
Al  2.49932532E-001  -4.21938908E-003  7.50017777E-001
Al  -2.77193000E-003  2.49896572E-001  7.49480027E-001
Al  4.92958083E-003  5.01368403E-001  -2.83014134E-003
Al  2.47222264E-001  7.50524922E-001  4.00144725E-004
Al  2.50324800E-001  5.04085705E-001  2.49945699E-001
Al  -1.90551429E-004  7.50415760E-001  2.54960619E-001
Al  -4.08298630E-003  4.95282618E-001  5.00059114E-001
Al  2.50016741E-001  7.50081741E-001  4.99738969E-001
Al  2.50016751E-001  5.02489090E-001  7.51556012E-001
Al  -2.99551998E-003  7.54989251E-001  7.45244893E-001
Al  4.98168479E-001  -4.84790869E-003  6.37238921E-004
Al  7.47445499E-001  2.50154070E-001  -1.64610745E-004
Al  7.53285187E-001  8.32839142E-004  2.45047287E-001
Al  4.99448517E-001  2.49653127E-001  2.52123227E-001
Al  5.03146873E-001  2.06379370E-004  4.99980657E-001
Al  7.47355489E-001  2.51103709E-001  5.00038380E-001
Al  7.53209482E-001  -4.99456421E-003  7.53470835E-001
Al  5.00037087E-001  2.54693940E-001  7.52505142E-001
Al  4.95011875E-001  5.00652979E-001  -9.56149141E-004
Al  7.49941546E-001  7.54939532E-001  3.53173264E-003
Al  7.50201450E-001  5.02610184E-001  2.49630665E-001
Al  5.04611074E-001  7.49513403E-001  2.46027032E-001
Al  4.99156199E-001  5.02850678E-001  4.99982861E-001
Al  7.50091064E-001  7.49901587E-001  5.01025431E-001
Al  7.50122838E-001  4.99223264E-001  7.49963761E-001
Al  4.95710193E-001  7.51375915E-001  7.51781275E-001
K_POINTS automatic
2 2 2 1 1 1
