&CONTROL
restart_mode = 'from_scratch',
calculation = 'scf',
outdir = '/gpfs/bb/bxp912/scratch',
pseudo_dir = '/gpfs/bb/bxp912/pseudopotentials',
prefix = '3.00000000E-001',
etot_conv_thr = 1.00000000E-007,
forc_conv_thr = 1.00000000E-007,
nstep = 200,
tprnfor = .true.,
tstress = .true.,
disk_io = 'low',
/
&SYSTEM
ibrav = 14,
celldm(1) = 3.05001797E+001,
celldm(2) = 1.00000000E+000,
celldm(3) = 1.00000000E+000,
celldm(4) = 0.00000000E+000,
celldm(5) = 0.00000000E+000,
celldm(6) = 0.00000000E+000,
nat = 256,
ntyp = 1,
ecutwfc = 35,
ecutrho = 208,
occupations = 'smearing',
smearing = 'mv',
degauss = 5.00000007E-002,
/
&ELECTRONS
diagonalization = 'david',
mixing_mode = plain,
mixing_beta = 6.99999988E-001,
conv_thr = 1.00000000E-007,
/
&IONS
ion_dynamics = 'bfgs',
/
&CELL
cell_dynamics = 'bfgs',
press = 0.00000000E+000,
cell_factor = 2.00000000E+000,
/
ATOMIC_SPECIES
Al  2.69815390E+001  Al.pbe-n-kjpaw_psl.0.1.UPF
ATOMIC_POSITIONS crystal
Al  1.89430162E-005  -2.03434581E-003  3.28386594E-004
Al  1.24743292E-001  1.24842771E-001  -8.64792409E-004
Al  1.23073016E-001  2.94648193E-004  1.22507429E-001
Al  -9.51792470E-006  1.23418801E-001  1.25042962E-001
Al  -2.24272930E-005  -1.59940358E-003  2.49991012E-001
Al  1.26943809E-001  1.23455935E-001  2.50158525E-001
Al  1.24082313E-001  1.23998922E-003  3.76275293E-001
Al  -1.97333853E-003  1.24991629E-001  3.76000127E-001
Al  -5.84601264E-004  -6.73296077E-005  5.01521144E-001
Al  1.26862890E-001  1.25058097E-001  5.00059049E-001
Al  1.25030027E-001  8.37084673E-006  6.26177917E-001
Al  8.76229604E-005  1.25488185E-001  6.24974375E-001
Al  9.00362748E-006  3.32884678E-005  7.47544399E-001
Al  1.25009100E-001  1.25019379E-001  7.50018873E-001
Al  1.25030310E-001  1.95553387E-003  8.72785288E-001
Al  5.49507237E-004  1.26914442E-001  8.74853891E-001
Al  1.09283342E-004  2.49837672E-001  -8.07565011E-004
Al  1.24918720E-001  3.74926851E-001  -1.82287476E-003
Al  1.24981831E-001  2.49934427E-001  1.23840291E-001
Al  -2.40314256E-003  3.75509655E-001  1.27148996E-001
Al  -1.59467180E-003  2.50017790E-001  2.49930023E-001
Al  1.24924067E-001  3.74540166E-001  2.49975880E-001
Al  1.26980942E-001  2.48586326E-001  3.77125231E-001
Al  8.16136298E-005  3.76074729E-001  3.75461440E-001
Al  1.18034595E-004  2.49759041E-001  5.02259598E-001
Al  1.22581891E-001  3.75146957E-001  5.00960145E-001
Al  1.25665918E-001  2.49856414E-001  6.24821550E-001
Al  2.50419488E-005  3.76802157E-001  6.22760035E-001
Al  -2.09713197E-004  2.48525755E-001  7.51044561E-001
Al  1.26475173E-001  3.74944992E-001  7.52346259E-001
Al  1.24959102E-001  2.51694917E-001  8.75137406E-001
Al  -2.35301935E-003  3.77482944E-001  8.74312565E-001
Al  -2.49659651E-003  5.00051225E-001  1.41205436E-004
Al  1.24880618E-001  6.26708514E-001  2.19803523E-003
Al  1.25801950E-001  5.00178871E-001  1.24752325E-001
Al  -8.02271517E-004  6.24981499E-001  1.24981798E-001
Al  1.64922409E-003  5.02142333E-001  2.50492535E-001
Al  1.25335237E-001  6.24782202E-001  2.49966066E-001
Al  1.24991302E-001  5.01965715E-001  3.74662945E-001
Al  -2.93396578E-005  6.24440023E-001  3.75809833E-001
Al  -1.06338293E-003  4.99950738E-001  5.02203073E-001
Al  1.23318589E-001  6.26063159E-001  5.00883743E-001
Al  1.24952883E-001  5.01751380E-001  6.23895812E-001
Al  4.30000863E-004  6.25147842E-001  6.24339428E-001
Al  -1.72348248E-003  5.01352743E-001  7.50023736E-001
Al  1.23924422E-001  6.24963599E-001  7.47766983E-001
Al  1.24511240E-001  4.99922080E-001  8.75517571E-001
Al  3.36499448E-005  6.25450828E-001  8.74905614E-001
Al  -5.29657572E-004  7.48446257E-001  -2.00313422E-003
Al  1.24630953E-001  8.73348148E-001  1.84848827E-005
Al  1.24853534E-001  7.48550181E-001  1.25316474E-001
Al  2.26549957E-004  8.76303757E-001  1.22772558E-001
Al  1.75595489E-005  7.50098555E-001  2.48494834E-001
Al  1.24991120E-001  8.75723521E-001  2.47964463E-001
Al  1.22689365E-001  7.49739115E-001  3.75587976E-001
Al  2.01159163E-003  8.77444637E-001  3.74966752E-001
Al  7.66443172E-004  7.49981069E-001  5.01014450E-001
Al  1.24990226E-001  8.73827097E-001  5.00259645E-001
Al  1.25193357E-001  7.50883636E-001  6.23749627E-001
Al  1.24302129E-003  8.77436956E-001  6.25018979E-001
Al  2.47581112E-004  7.49966378E-001  7.50105554E-001
Al  1.25023992E-001  8.75475362E-001  7.49358631E-001
Al  1.24963250E-001  7.50018607E-001  8.76731749E-001
Al  -1.24340777E-003  8.77423086E-001  8.77441934E-001
Al  2.52373386E-001  2.47777030E-003  2.47436396E-003
Al  3.74813753E-001  1.24982713E-001  -1.87556484E-005
Al  3.75008678E-001  -8.68609010E-006  1.25721303E-001
Al  2.49980672E-001  1.24755092E-001  1.25008933E-001
Al  2.49790827E-001  -2.39431756E-003  2.49928069E-001
Al  3.76523491E-001  1.24980303E-001  2.48384642E-001
Al  3.76295975E-001  -3.81862313E-004  3.75897102E-001
Al  2.50022273E-001  1.25018440E-001  3.77433829E-001
Al  2.47506750E-001  -2.26030816E-005  5.00008621E-001
Al  3.74932970E-001  1.27106143E-001  4.99959656E-001
Al  3.75025307E-001  -4.75710330E-004  6.23806766E-001
Al  2.49050223E-001  1.26504039E-001  6.24949694E-001
Al  2.52368508E-001  -6.44358794E-004  7.49990845E-001
Al  3.75854109E-001  1.24544535E-001  7.50320800E-001
Al  3.77499987E-001  1.64753288E-003  8.77289883E-001
Al  2.50109308E-001  1.23329555E-001  8.75819873E-001
Al  2.49828356E-001  2.52364903E-001  -5.15902343E-004
Al  3.74933009E-001  3.74370146E-001  -1.86742882E-005
Al  3.74566749E-001  2.48071476E-001  1.22863186E-001
Al  2.50049553E-001  3.75472320E-001  1.24981409E-001
Al  2.52428067E-001  2.52039788E-001  2.47647732E-001
Al  3.74858158E-001  3.74456927E-001  2.49918622E-001
Al  3.76056178E-001  2.49791990E-001  3.75008977E-001
Al  2.50018757E-001  3.75008421E-001  3.72500028E-001
Al  2.49658643E-001  2.48102208E-001  4.99011124E-001
Al  3.75039648E-001  3.74991523E-001  5.00087863E-001
Al  3.74974128E-001  2.49915530E-001  6.25178405E-001
Al  2.49302185E-001  3.75115073E-001  6.24853400E-001
Al  2.49688954E-001  2.48591759E-001  7.49232290E-001
Al  3.74195083E-001  3.75837849E-001  7.49442429E-001
Al  3.75088695E-001  2.49981472E-001  8.73782844E-001
Al  2.52326713E-001  3.74429545E-001  8.77497780E-001
Al  2.51260726E-001  4.97748053E-001  -1.23718755E-003
Al  3.75009633E-001  6.25974426E-001  -9.66814715E-006
Al  3.75317551E-001  5.01617311E-001  1.24439109E-001
Al  2.49580157E-001  6.22500570E-001  1.22575683E-001
Al  2.50282683E-001  5.00070737E-001  2.48909410E-001
Al  3.75019242E-001  6.27495950E-001  2.50914562E-001
Al  3.72503750E-001  5.00463407E-001  3.75365106E-001
Al  2.49417714E-001  6.25031302E-001  3.74805792E-001
Al  2.49831775E-001  4.99936831E-001  4.99768650E-001
Al  3.74760024E-001  6.26383643E-001  4.99645497E-001
Al  3.74981674E-001  5.00030441E-001  6.25153266E-001
Al  2.50058648E-001  6.25080576E-001  6.25182722E-001
Al  2.50078245E-001  5.01339064E-001  7.49962673E-001
Al  3.75434590E-001  6.26858856E-001  7.49975465E-001
Al  3.76492439E-001  4.99561701E-001  8.77239659E-001
Al  2.52139468E-001  6.24649826E-001  8.75068987E-001
Al  2.50807136E-001  7.50092732E-001  -1.38783213E-003
Al  3.74406343E-001  8.74955339E-001  4.09078766E-004
Al  3.75402157E-001  7.48050141E-001  1.25811768E-001
Al  2.47792346E-001  8.75359182E-001  1.25093094E-001
Al  2.47578538E-001  7.47721533E-001  2.48345370E-001
Al  3.75718707E-001  8.77487619E-001  2.52461645E-001
Al  3.75544923E-001  7.48421280E-001  3.75427065E-001
Al  2.52464563E-001  8.73084498E-001  3.74811030E-001
Al  2.50383358E-001  7.47657545E-001  4.99990704E-001
Al  3.75684124E-001  8.73609357E-001  5.02337499E-001
Al  3.76661111E-001  7.50119122E-001  6.25419472E-001
Al  2.49230646E-001  8.75697524E-001  6.25037347E-001
Al  2.48169298E-001  7.50133476E-001  7.50317411E-001
Al  3.76250172E-001  8.74451118E-001  7.49285949E-001
Al  3.75963456E-001  7.47744097E-001  8.75144746E-001
Al  2.47647233E-001  8.74970284E-001  8.75066663E-001
Al  4.99971336E-001  -1.10743168E-003  2.47435303E-003
Al  6.24558294E-001  1.23641419E-001  -1.85377927E-004
Al  6.24587342E-001  -3.67437314E-004  1.24979906E-001
Al  4.99338022E-001  1.22501964E-001  1.25169745E-001
Al  4.99933353E-001  7.21999449E-005  2.49075876E-001
Al  6.24259955E-001  1.22911910E-001  2.51704842E-001
Al  6.24656045E-001  8.53032066E-006  3.72673133E-001
Al  5.02005558E-001  1.24981270E-001  3.76364620E-001
Al  4.99991051E-001  -9.76712275E-006  5.01202764E-001
Al  6.26958876E-001  1.22514065E-001  4.99596535E-001
Al  6.26191760E-001  -1.57999245E-003  6.25457546E-001
Al  5.00057609E-001  1.25189244E-001  6.25037130E-001
Al  5.02349900E-001  1.04799952E-003  7.48516054E-001
Al  6.24187072E-001  1.25008370E-001  7.50169079E-001
Al  6.24844352E-001  -1.73535035E-004  8.75018488E-001
Al  4.99923025E-001  1.26884294E-001  8.73034351E-001
Al  5.00773193E-001  2.50036707E-001  -4.39054612E-004
Al  6.23068742E-001  3.73016531E-001  -6.02751434E-004
Al  6.23618861E-001  2.49991226E-001  1.26247177E-001
Al  4.98843043E-001  3.75771123E-001  1.24391253E-001
Al  5.02329899E-001  2.49674072E-001  2.50064432E-001
Al  6.26826340E-001  3.76796645E-001  2.52208850E-001
Al  6.22562706E-001  2.49941899E-001  3.74981439E-001
Al  4.98846154E-001  3.75265099E-001  3.75183435E-001
Al  5.02201320E-001  2.49596998E-001  5.02205987E-001
Al  6.24702687E-001  3.73382076E-001  4.97658691E-001
Al  6.27161925E-001  2.50750137E-001  6.27499652E-001
Al  4.99549588E-001  3.72685854E-001  6.25517363E-001
Al  4.98234261E-001  2.48713336E-001  7.49920531E-001
Al  6.27064368E-001  3.72722685E-001  7.51435679E-001
Al  6.26040201E-001  2.52457566E-001  8.72515133E-001
Al  5.00471183E-001  3.75918299E-001  8.74961366E-001
Al  5.02380815E-001  4.99974912E-001  3.34665085E-004
Al  6.27479040E-001  6.25058185E-001  -3.96923026E-004
Al  6.25018398E-001  5.00057629E-001  1.23207560E-001
Al  5.01488889E-001  6.25048260E-001  1.25156799E-001
Al  4.97609994E-001  4.99875840E-001  2.50021169E-001
Al  6.24859767E-001  6.24713508E-001  2.47647029E-001
Al  6.23787570E-001  4.99758984E-001  3.75101271E-001
Al  5.00510132E-001  6.25008450E-001  3.74081895E-001
Al  4.97569360E-001  5.00258048E-001  5.00152876E-001
Al  6.27157124E-001  6.22956005E-001  5.00430859E-001
Al  6.22512727E-001  4.99885810E-001  6.26673819E-001
Al  5.02339665E-001  6.24841217E-001  6.23763986E-001
Al  4.99664287E-001  5.01322214E-001  7.50077121E-001
Al  6.26655344E-001  6.27391888E-001  7.49884334E-001
Al  6.24581440E-001  4.99486664E-001  8.74412692E-001
Al  4.97575273E-001  6.24703748E-001  8.74061614E-001
Al  4.99940651E-001  7.51144523E-001  7.26585162E-004
Al  6.27156618E-001  8.74333216E-001  3.24797562E-005
Al  6.25018277E-001  7.50144514E-001  1.25551169E-001
Al  5.00319687E-001  8.74553958E-001  1.24991503E-001
Al  4.99967457E-001  7.50082059E-001  2.48484645E-001
Al  6.27184511E-001  8.73343321E-001  2.49738727E-001
Al  6.24068432E-001  7.47917596E-001  3.74625439E-001
Al  5.01115774E-001  8.75254971E-001  3.74981869E-001
Al  4.97620071E-001  7.49991341E-001  5.00395342E-001
Al  6.23633871E-001  8.74978737E-001  4.97971268E-001
Al  6.27496139E-001  7.51528642E-001  6.23340230E-001
Al  5.02312045E-001  8.75115812E-001  6.24425142E-001
Al  5.00008429E-001  7.47585977E-001  7.50032987E-001
Al  6.25715485E-001  8.75586438E-001  7.50018988E-001
Al  6.24981764E-001  7.47770767E-001  8.75232569E-001
Al  5.00521140E-001  8.73291120E-001  8.75487599E-001
Al  7.50073713E-001  -3.45079377E-004  -8.42725204E-004
Al  8.74737497E-001  1.25311049E-001  1.57474195E-003
Al  8.72718860E-001  2.04928048E-003  1.24990950E-001
Al  7.48904938E-001  1.24818932E-001  1.25008375E-001
Al  7.50190902E-001  1.90116303E-004  2.49951156E-001
Al  8.75920163E-001  1.26191093E-001  2.49981893E-001
Al  8.74827595E-001  -1.58021048E-003  3.77268990E-001
Al  7.51700247E-001  1.24402772E-001  3.77499957E-001
Al  7.49948527E-001  -1.12178264E-004  5.02470690E-001
Al  8.75861734E-001  1.23115088E-001  4.99822956E-001
Al  8.75394098E-001  9.62363349E-005  6.24978198E-001
Al  7.52133962E-001  1.24906558E-001  6.23936013E-001
Al  7.49980675E-001  9.37838196E-004  7.52416401E-001
Al  8.76892077E-001  1.25815399E-001  7.51072079E-001
Al  8.72851350E-001  -1.94313637E-003  8.75212762E-001
Al  7.50008389E-001  1.23806778E-001  8.76998798E-001
Al  7.49927263E-001  2.52494865E-001  -1.73481429E-004
Al  8.75905269E-001  3.74939245E-001  -2.23941242E-003
Al  8.74444245E-001  2.48076852E-001  1.27313920E-001
Al  7.52495372E-001  3.74852782E-001  1.22548130E-001
Al  7.50379092E-001  2.49802032E-001  2.49991199E-001
Al  8.74487422E-001  3.74559903E-001  2.50116425E-001
Al  8.75021434E-001  2.49981892E-001  3.75018711E-001
Al  7.50350535E-001  3.75921269E-001  3.77363438E-001
Al  7.51855969E-001  2.49282233E-001  4.99381468E-001
Al  8.75018990E-001  3.75813816E-001  5.00022765E-001
Al  8.72667693E-001  2.51162149E-001  6.27352726E-001
Al  7.52499509E-001  3.73930007E-001  6.25022940E-001
Al  7.49657723E-001  2.49879643E-001  7.51610850E-001
Al  8.76137713E-001  3.74070489E-001  7.50655894E-001
Al  8.75018228E-001  2.51974210E-001  8.75218808E-001
Al  7.48783276E-001  3.75031303E-001  8.76831779E-001
Al  7.48735976E-001  4.99124416E-001  2.05472876E-003
Al  8.73404694E-001  6.24857662E-001  2.43507690E-003
Al  8.74918448E-001  4.99990679E-001  1.25103380E-001
Al  7.49971824E-001  6.22599991E-001  1.24968033E-001
Al  7.48984035E-001  5.00008646E-001  2.50078601E-001
Al  8.74513417E-001  6.26462552E-001  2.51638039E-001
Al  8.75154918E-001  4.99991545E-001  3.74074462E-001
Al  7.48593076E-001  6.24439143E-001  3.74173802E-001
Al  7.47526509E-001  4.99977659E-001  4.99207379E-001
Al  8.74807492E-001  6.26479007E-001  4.98327883E-001
Al  8.77371044E-001  4.98079611E-001  6.24991260E-001
Al  7.49718867E-001  6.24971986E-001  6.24936042E-001
Al  7.48586690E-001  4.99991625E-001  7.49120187E-001
Al  8.72998759E-001  6.24981433E-001  7.49517288E-001
Al  8.75022305E-001  4.98077565E-001  8.75530081E-001
Al  7.50119833E-001  6.24977922E-001  8.76890635E-001
Al  7.50428483E-001  7.50009167E-001  -8.04692325E-004
Al  8.74965267E-001  8.75075410E-001  1.68347444E-003
Al  8.75008403E-001  7.50009072E-001  1.23902943E-001
Al  7.49971088E-001  8.74110874E-001  1.24793845E-001
Al  7.50469643E-001  7.50392719E-001  2.47997768E-001
Al  8.73006203E-001  8.75463736E-001  2.48226095E-001
Al  8.75118193E-001  7.49324596E-001  3.72570378E-001
Al  7.52494743E-001  8.74966237E-001  3.74934250E-001
Al  7.50034820E-001  7.52402313E-001  5.00920805E-001
Al  8.74978709E-001  8.77349023E-001  4.99951393E-001
Al  8.74981854E-001  7.49957972E-001  6.24172525E-001
Al  7.49719892E-001  8.73903220E-001  6.24905263E-001
Al  7.50290445E-001  7.50134701E-001  7.52444832E-001
Al  8.74082351E-001  8.74991112E-001  7.50111204E-001
Al  8.75070799E-001  7.51123804E-001  8.74707233E-001
Al  7.47635189E-001  8.75124309E-001  8.72536138E-001
K_POINTS automatic
2 2 2 1 1 1
