&CONTROL
restart_mode = 'from_scratch',
calculation = 'scf',
outdir = '/gpfs/bb/bxp912/scratch',
pseudo_dir = '/gpfs/bb/bxp912/pseudopotentials',
prefix = '1.44000000E-001',
etot_conv_thr = 1.00000000E-007,
forc_conv_thr = 1.00000000E-007,
nstep = 200,
tprnfor = .true.,
tstress = .true.,
disk_io = 'low',
/
&SYSTEM
ibrav = 14,
celldm(1) = 8.07000000E+000,
celldm(2) = 1.00000000E+000,
celldm(3) = 1.00000000E+000,
celldm(4) = 0.00000000E+000,
celldm(5) = 0.00000000E+000,
celldm(6) = 0.00000000E+000,
nat = 32,
ntyp = 1,
ecutwfc = 35,
ecutrho = 208,
occupations = 'smearing',
smearing = 'mv',
degauss = 5.00000007E-002,
/
&ELECTRONS
diagonalization = 'david',
mixing_mode = plain,
mixing_beta = 6.99999988E-001,
conv_thr = 1.00000000E-007,
/
&IONS
ion_dynamics = 'bfgs',
/
&CELL
cell_dynamics = 'bfgs',
press = 0.00000000E+000,
cell_factor = 2.00000000E+000,
/
ATOMIC_SPECIES
Al  2.69815390E+001  Al.pbe-n-kjpaw_psl.0.1.UPF
ATOMIC_POSITIONS crystal
Al  -1.35896728E-003  -3.59605185E-003  1.96545346E-004
Al  2.52836861E-001  2.45092002E-001  1.86786810E-003
Al  2.45137966E-001  6.03678055E-004  2.52412184E-001
Al  6.77222599E-004  2.53771022E-001  2.49982775E-001
Al  -4.02027750E-003  4.05685384E-004  5.00267462E-001
Al  2.54478951E-001  2.50517668E-001  5.04351565E-001
Al  2.50751638E-001  1.96395768E-005  7.50061938E-001
Al  1.15740966E-004  2.46798562E-001  7.49847676E-001
Al  2.17518931E-003  5.01760972E-001  -1.36824385E-003
Al  2.48390953E-001  7.47071391E-001  1.78888044E-005
Al  2.54889436E-001  4.96956578E-001  2.45580681E-001
Al  -2.57625901E-004  7.45683539E-001  2.50133947E-001
Al  -4.96331723E-003  5.00611026E-001  4.99963485E-001
Al  2.50228119E-001  7.49982035E-001  4.96938349E-001
Al  2.49963751E-001  4.99963747E-001  7.50036242E-001
Al  -2.17238106E-003  7.54757262E-001  7.49588628E-001
Al  4.97340220E-001  6.03792870E-005  -1.43618270E-004
Al  7.53490932E-001  2.49982632E-001  -3.55264447E-005
Al  7.53998058E-001  -1.80848451E-004  2.47612494E-001
Al  5.03530953E-001  2.45001274E-001  2.47365668E-001
Al  4.96434377E-001  -2.27650165E-003  5.02590312E-001
Al  7.49344760E-001  2.46227917E-001  5.03423033E-001
Al  7.53762311E-001  -1.68122739E-005  7.50129338E-001
Al  4.97615199E-001  2.49072941E-001  7.52476941E-001
Al  5.02315610E-001  5.00520824E-001  -4.97068243E-003
Al  7.50044417E-001  7.45044271E-001  6.47294516E-004
Al  7.46566414E-001  4.99964611E-001  2.50682832E-001
Al  4.95001348E-001  7.54990318E-001  2.45758934E-001
Al  4.98333019E-001  4.95646778E-001  5.00040313E-001
Al  7.49961953E-001  7.50214159E-001  4.98826832E-001
Al  7.50016748E-001  4.98071663E-001  7.51898263E-001
Al  4.96691741E-001  7.50036215E-001  7.53982875E-001
K_POINTS automatic
2 2 2 1 1 1
