&CONTROL
restart_mode = 'from_scratch',
calculation = 'scf',
outdir = '/gpfs/bb/bxp912/scratch',
pseudo_dir = '/gpfs/bb/bxp912/pseudopotentials',
prefix = '1.44000000E-001',
etot_conv_thr = 1.00000000E-007,
forc_conv_thr = 1.00000000E-007,
nstep = 200,
tprnfor = .true.,
tstress = .true.,
disk_io = 'low',
/
&SYSTEM
ibrav = 14,
celldm(1) = 8.07000000E+000,
celldm(2) = 1.00000000E+000,
celldm(3) = 1.00000000E+000,
celldm(4) = 0.00000000E+000,
celldm(5) = 0.00000000E+000,
celldm(6) = 0.00000000E+000,
nat = 32,
ntyp = 1,
ecutwfc = 35,
ecutrho = 208,
occupations = 'smearing',
smearing = 'mv',
degauss = 5.00000007E-002,
/
&ELECTRONS
diagonalization = 'david',
mixing_mode = plain,
mixing_beta = 6.99999988E-001,
conv_thr = 1.00000000E-007,
/
&IONS
ion_dynamics = 'bfgs',
/
&CELL
cell_dynamics = 'bfgs',
press = 0.00000000E+000,
cell_factor = 2.00000000E+000,
/
ATOMIC_SPECIES
Al  2.69815390E+001  Al.pbe-n-kjpaw_psl.0.1.UPF
ATOMIC_POSITIONS crystal
Al  1.48366398E-003  -2.95567629E-003  4.37628506E-003
Al  2.53628915E-001  2.48542420E-001  -2.74937636E-003
Al  2.54500890E-001  -4.25992745E-005  2.53358650E-001
Al  -8.34934312E-004  2.52857976E-001  2.50124128E-001
Al  -1.68168929E-004  1.34554956E-003  5.03728011E-001
Al  2.47328679E-001  2.47519764E-001  4.97805169E-001
Al  2.50759390E-001  4.98382895E-003  7.47640867E-001
Al  -3.77281494E-005  2.54909295E-001  7.49721725E-001
Al  -3.39849828E-004  5.03420170E-001  -3.70634812E-005
Al  2.50242222E-001  7.51594114E-001  2.34983674E-004
Al  2.53106496E-001  5.02144292E-001  2.50116486E-001
Al  -4.74776176E-003  7.52579678E-001  2.51833154E-001
Al  2.55950670E-003  5.02190594E-001  5.01110448E-001
Al  2.50363185E-001  7.49963401E-001  5.04059405E-001
Al  2.51673495E-001  4.99497468E-001  7.51470286E-001
Al  -1.96062217E-003  7.50638886E-001  7.48696145E-001
Al  5.04612550E-001  9.64252619E-005  -1.47853291E-003
Al  7.53550416E-001  2.50038281E-001  9.83992354E-004
Al  7.50381751E-001  -8.51939541E-005  2.49960082E-001
Al  4.96360537E-001  2.50016898E-001  2.51041173E-001
Al  5.00016741E-001  -1.51039714E-004  4.98499443E-001
Al  7.50568633E-001  2.53256343E-001  4.99914672E-001
Al  7.45031197E-001  -4.79183787E-003  7.48984407E-001
Al  4.98120838E-001  2.48872010E-001  7.48745732E-001
Al  5.02977709E-001  5.00036452E-001  -4.14652948E-003
Al  7.50130464E-001  7.49931669E-001  -3.10988039E-003
Al  7.50036243E-001  4.99319580E-001  2.49606497E-001
Al  4.95433289E-001  7.45054352E-001  2.47207365E-001
Al  4.97629731E-001  4.95737748E-001  4.99792717E-001
Al  7.52448579E-001  7.45112009E-001  5.03345865E-001
Al  7.45169271E-001  5.03988054E-001  7.49263870E-001
Al  4.99955745E-001  7.47387350E-001  7.50100287E-001
K_POINTS automatic
2 2 2 1 1 1
