&CONTROL
restart_mode = 'from_scratch',
calculation = 'scf',
outdir = '/gpfs/bb/bxp912/scratch',
pseudo_dir = '/gpfs/bb/bxp912/pseudopotentials',
prefix = '3.00000000E-001',
etot_conv_thr = 1.00000000E-007,
forc_conv_thr = 1.00000000E-007,
nstep = 200,
tprnfor = .true.,
tstress = .true.,
disk_io = 'low',
/
&SYSTEM
ibrav = 14,
celldm(1) = 3.05001797E+001,
celldm(2) = 1.00000000E+000,
celldm(3) = 1.00000000E+000,
celldm(4) = 0.00000000E+000,
celldm(5) = 0.00000000E+000,
celldm(6) = 0.00000000E+000,
nat = 256,
ntyp = 1,
ecutwfc = 35,
ecutrho = 208,
occupations = 'smearing',
smearing = 'mv',
degauss = 5.00000007E-002,
/
&ELECTRONS
diagonalization = 'david',
mixing_mode = plain,
mixing_beta = 6.99999988E-001,
conv_thr = 1.00000000E-007,
/
&IONS
ion_dynamics = 'bfgs',
/
&CELL
cell_dynamics = 'bfgs',
press = 0.00000000E+000,
cell_factor = 2.00000000E+000,
/
ATOMIC_SPECIES
Al  2.69815390E+001  Al.pbe-n-kjpaw_psl.0.1.UPF
ATOMIC_POSITIONS crystal
Al  -2.53895276E-004  2.48865243E-003  -1.89292581E-004
Al  1.26152037E-001  1.26862335E-001  8.15401551E-004
Al  1.25031369E-001  -5.09359760E-004  1.24137304E-001
Al  4.27163489E-005  1.24360975E-001  1.27489275E-001
Al  -1.78950718E-003  -1.95509466E-005  2.52191822E-001
Al  1.24961848E-001  1.25018418E-001  2.48760068E-001
Al  1.24841343E-001  4.35990045E-004  3.73966740E-001
Al  -1.46621427E-003  1.25194233E-001  3.73579819E-001
Al  -2.24430311E-003  -6.63874057E-004  5.00852560E-001
Al  1.26334700E-001  1.25141292E-001  4.99759891E-001
Al  1.23976816E-001  -1.22802955E-003  6.23745989E-001
Al  5.04406992E-004  1.24846192E-001  6.25096197E-001
Al  -2.48598368E-003  6.99598520E-004  7.50009252E-001
Al  1.24196521E-001  1.23926327E-001  7.48824252E-001
Al  1.26086144E-001  -7.49125914E-004  8.73482575E-001
Al  2.40189482E-003  1.25018188E-001  8.73401469E-001
Al  -3.37432316E-004  2.49674518E-001  5.14521864E-005
Al  1.24802331E-001  3.76320753E-001  -2.04655784E-004
Al  1.25316033E-001  2.47804344E-001  1.24883998E-001
Al  -2.02981728E-005  3.74991353E-001  1.23596058E-001
Al  -3.87984540E-005  2.49975785E-001  2.52421447E-001
Al  1.24977069E-001  3.75028734E-001  2.49981634E-001
Al  1.26529179E-001  2.50757740E-001  3.74936674E-001
Al  -2.42594985E-003  3.74487570E-001  3.75054533E-001
Al  8.17354026E-005  2.50017530E-001  4.97519835E-001
Al  1.26091383E-001  3.77401513E-001  4.97702002E-001
Al  1.24847329E-001  2.52479331E-001  6.23754539E-001
Al  6.49537084E-004  3.75020728E-001  6.24991271E-001
Al  -2.35836262E-003  2.49400277E-001  7.52013959E-001
Al  1.24803025E-001  3.72562341E-001  7.49981393E-001
Al  1.24991549E-001  2.50798679E-001  8.74717135E-001
Al  3.55758563E-005  3.74926304E-001  8.74991354E-001
Al  -7.51997793E-004  5.00440880E-001  1.82073835E-005
Al  1.23289561E-001  6.22891292E-001  6.14450474E-004
Al  1.25009206E-001  4.99957159E-001  1.22874575E-001
Al  4.30113359E-004  6.23817448E-001  1.26401718E-001
Al  2.44615509E-004  4.99883905E-001  2.49765753E-001
Al  1.24601304E-001  6.22500005E-001  2.48037636E-001
Al  1.25034632E-001  4.98717642E-001  3.74991568E-001
Al  -3.36047288E-005  6.23962941E-001  3.75032776E-001
Al  3.08760111E-004  5.02166113E-001  5.02498564E-001
Al  1.22732820E-001  6.25647309E-001  4.97659364E-001
Al  1.25905431E-001  4.99912987E-001  6.24991612E-001
Al  1.77340868E-003  6.24923936E-001  6.25094518E-001
Al  -1.97197873E-003  5.01418277E-001  7.49425346E-001
Al  1.25018894E-001  6.24981114E-001  7.52468515E-001
Al  1.26809597E-001  5.00570287E-001  8.75318111E-001
Al  1.91888925E-005  6.26697244E-001  8.74603520E-001
Al  -2.09547836E-005  7.48611881E-001  4.14294422E-005
Al  1.23869254E-001  8.75018500E-001  -6.77108644E-004
Al  1.24927779E-001  7.50790256E-001  1.23915910E-001
Al  1.32436429E-003  8.74532906E-001  1.26979548E-001
Al  8.68011995E-006  7.48141675E-001  2.47859733E-001
Al  1.25340481E-001  8.74981865E-001  2.47642727E-001
Al  1.24210035E-001  7.50017254E-001  3.75034064E-001
Al  2.49881191E-003  8.73810481E-001  3.75884781E-001
Al  2.61163918E-004  7.52305707E-001  4.99776862E-001
Al  1.24182523E-001  8.76618967E-001  5.00443771E-001
Al  1.25132113E-001  7.50656897E-001  6.27212224E-001
Al  3.23079312E-004  8.76378506E-001  6.24981645E-001
Al  1.36458082E-003  7.51246466E-001  7.49980686E-001
Al  1.22687593E-001  8.74354014E-001  7.50186627E-001
Al  1.24223000E-001  7.49272453E-001  8.73726239E-001
Al  -1.16307063E-003  8.74981067E-001  8.77421247E-001
Al  2.52492243E-001  -4.69555973E-004  -1.42887458E-003
Al  3.75178476E-001  1.25133294E-001  1.06264423E-003
Al  3.77472713E-001  -8.13466235E-004  1.27158412E-001
Al  2.47623536E-001  1.26296475E-001  1.24974961E-001
Al  2.50171335E-001  2.20769156E-004  2.49618083E-001
Al  3.75108893E-001  1.24980358E-001  2.52365162E-001
Al  3.77474913E-001  1.57190253E-003  3.75068406E-001
Al  2.49893906E-001  1.24926546E-001  3.76733555E-001
Al  2.47559905E-001  1.83509510E-005  4.99701817E-001
Al  3.72513220E-001  1.24738185E-001  4.99892610E-001
Al  3.75155728E-001  2.13079180E-003  6.26092846E-001
Al  2.49274104E-001  1.24625695E-001  6.27485848E-001
Al  2.49736287E-001  1.13731262E-004  7.49971612E-001
Al  3.72541878E-001  1.23986526E-001  7.49526423E-001
Al  3.75229777E-001  -8.44389948E-004  8.76485229E-001
Al  2.50598395E-001  1.27229981E-001  8.76688204E-001
Al  2.50632189E-001  2.49222682E-001  -2.36892451E-004
Al  3.73765733E-001  3.73712558E-001  7.65161493E-005
Al  3.74659789E-001  2.50482401E-001  1.22506685E-001
Al  2.50030948E-001  3.75018819E-001  1.23966624E-001
Al  2.49813548E-001  2.51383320E-001  2.50179687E-001
Al  3.74951951E-001  3.75018112E-001  2.48634334E-001
Al  3.73895410E-001  2.52329158E-001  3.74004840E-001
Al  2.49897768E-001  3.73673999E-001  3.77488835E-001
Al  2.50900481E-001  2.49616535E-001  5.01397023E-001
Al  3.73202842E-001  3.72509546E-001  5.00008488E-001
Al  3.76135386E-001  2.52188325E-001  6.27494996E-001
Al  2.49907054E-001  3.75744136E-001  6.26107188E-001
Al  2.48161832E-001  2.50566217E-001  7.47518679E-001
Al  3.73276031E-001  3.74976709E-001  7.49943554E-001
Al  3.75773122E-001  2.51211757E-001  8.74521283E-001
Al  2.50258858E-001  3.75172510E-001  8.74479885E-001
Al  2.50018415E-001  4.99950189E-001  -1.55549543E-003
Al  3.74778785E-001  6.24893728E-001  1.44071737E-003
Al  3.75426339E-001  5.02038820E-001  1.24991393E-001
Al  2.49991107E-001  6.24893372E-001  1.25380921E-001
Al  2.48584195E-001  5.02334972E-001  2.51852206E-001
Al  3.75035031E-001  6.23141999E-001  2.48480678E-001
Al  3.74273904E-001  5.02159945E-001  3.77215798E-001
Al  2.50233215E-001  6.24926234E-001  3.73011420E-001
Al  2.49824398E-001  4.99695129E-001  5.02374125E-001
Al  3.75117776E-001  6.25042134E-001  4.97711211E-001
Al  3.74990433E-001  4.99886609E-001  6.27223560E-001
Al  2.50320300E-001  6.24003901E-001  6.24897154E-001
Al  2.49671139E-001  5.00616894E-001  7.49395059E-001
Al  3.74439923E-001  6.23299652E-001  7.52264646E-001
Al  3.72908005E-001  5.02214865E-001  8.73494250E-001
Al  2.50018284E-001  6.25343262E-001  8.76971956E-001
Al  2.49981888E-001  7.49802027E-001  -2.16005348E-003
Al  3.74990309E-001  8.77206797E-001  -1.75319933E-003
Al  3.72800292E-001  7.50989349E-001  1.27203538E-001
Al  2.50032274E-001  8.74029275E-001  1.24981864E-001
Al  2.52384326E-001  7.51780332E-001  2.50018306E-001
Al  3.74582267E-001  8.75648487E-001  2.49460934E-001
Al  3.72533942E-001  7.49770545E-001  3.76015904E-001
Al  2.49173017E-001  8.75024793E-001  3.77391385E-001
Al  2.49762117E-001  7.50018853E-001  5.01425376E-001
Al  3.72887515E-001  8.75023177E-001  5.01170412E-001
Al  3.74628462E-001  7.48104908E-001  6.24976816E-001
Al  2.51607978E-001  8.76860512E-001  6.25261449E-001
Al  2.47510291E-001  7.49503609E-001  7.50045497E-001
Al  3.75208934E-001  8.75008370E-001  7.51785351E-001
Al  3.73796758E-001  7.49113635E-001  8.72579312E-001
Al  2.50033680E-001  8.73558809E-001  8.76554201E-001
Al  4.97541533E-001  -1.07492150E-003  1.37814194E-003
Al  6.27499207E-001  1.24655934E-001  1.31149314E-004
Al  6.25024208E-001  -8.16067896E-004  1.22519821E-001
Al  5.00020212E-001  1.24880822E-001  1.25018825E-001
Al  4.99298022E-001  3.99759222E-005  2.47505286E-001
Al  6.24914039E-001  1.24534665E-001  2.48644645E-001
Al  6.25009223E-001  -1.21266891E-004  3.75042816E-001
Al  5.00095104E-001  1.22901639E-001  3.75870857E-001
Al  4.97567640E-001  2.42677464E-003  5.00031455E-001
Al  6.25035554E-001  1.24890150E-001  5.00698008E-001
Al  6.27451861E-001  -1.81053745E-003  6.23627118E-001
Al  4.99912198E-001  1.25023247E-001  6.27339699E-001
Al  5.00647721E-001  9.16428941E-005  7.52492194E-001
Al  6.26027501E-001  1.24778269E-001  7.49167954E-001
Al  6.26113672E-001  2.22290292E-003  8.77401886E-001
Al  4.97946227E-001  1.25134302E-001  8.75800526E-001
Al  5.00974400E-001  2.50028471E-001  -1.50380078E-004
Al  6.24498785E-001  3.74618015E-001  3.95420198E-004
Al  6.24674949E-001  2.49951092E-001  1.26436829E-001
Al  4.99809719E-001  3.77123713E-001  1.25079719E-001
Al  4.98466269E-001  2.47595481E-001  2.47575721E-001
Al  6.26545001E-001  3.77364796E-001  2.50008600E-001
Al  6.27453386E-001  2.50213487E-001  3.74991399E-001
Al  4.99696670E-001  3.74447119E-001  3.77476977E-001
Al  5.01835218E-001  2.50027220E-001  4.99856339E-001
Al  6.26484518E-001  3.74527939E-001  4.99950771E-001
Al  6.25299629E-001  2.50489151E-001  6.25009056E-001
Al  4.98007960E-001  3.72799035E-001  6.22501957E-001
Al  5.00389963E-001  2.48575320E-001  7.48858676E-001
Al  6.25949951E-001  3.74748077E-001  7.49445366E-001
Al  6.25112429E-001  2.49966447E-001  8.72887409E-001
Al  5.00009840E-001  3.74991184E-001  8.75536202E-001
Al  5.00080924E-001  5.00078718E-001  -8.86073753E-006
Al  6.26076187E-001  6.25082653E-001  -2.42871971E-004
Al  6.24367909E-001  4.99696841E-001  1.25345992E-001
Al  4.97724968E-001  6.27094877E-001  1.24485883E-001
Al  5.02473982E-001  5.00032390E-001  2.48384664E-001
Al  6.23904568E-001  6.24693256E-001  2.49082032E-001
Al  6.25021066E-001  4.99879709E-001  3.73026444E-001
Al  5.00219981E-001  6.23034145E-001  3.75236026E-001
Al  4.99741738E-001  4.99016963E-001  4.99569556E-001
Al  6.25172927E-001  6.23853479E-001  4.97500215E-001
Al  6.22612602E-001  5.00469238E-001  6.23812049E-001
Al  4.99980888E-001  6.25569493E-001  6.27484161E-001
Al  4.97500744E-001  5.00493703E-001  7.49587733E-001
Al  6.24853940E-001  6.24367699E-001  7.50358014E-001
Al  6.25136539E-001  4.99821777E-001  8.73020303E-001
Al  5.00165055E-001  6.24722752E-001  8.76563911E-001
Al  4.99990927E-001  7.50008920E-001  -5.59585447E-004
Al  6.25023032E-001  8.74037844E-001  -4.20513650E-004
Al  6.24828885E-001  7.50167840E-001  1.25356481E-001
Al  5.02452027E-001  8.72724775E-001  1.25018166E-001
Al  4.97757034E-001  7.49201165E-001  2.49785698E-001
Al  6.25023085E-001  8.77499031E-001  2.50808834E-001
Al  6.24991611E-001  7.50942695E-001  3.77482084E-001
Al  5.00020775E-001  8.73447633E-001  3.74826110E-001
Al  5.00845813E-001  7.47504045E-001  5.02022961E-001
Al  6.27387750E-001  8.75022949E-001  4.98570282E-001
Al  6.26039396E-001  7.49801939E-001  6.25984024E-001
Al  4.98452874E-001  8.77379406E-001  6.23175399E-001
Al  4.97640292E-001  7.52155213E-001  7.50955383E-001
Al  6.24857091E-001  8.75060910E-001  7.50865926E-001
Al  6.24021287E-001  7.49951493E-001  8.74424521E-001
Al  5.00511105E-001  8.72931740E-001  8.73092932E-001
Al  7.51605466E-001  8.69925720E-006  -3.15433863E-004
Al  8.75411631E-001  1.24723117E-001  1.25215682E-003
Al  8.75359362E-001  -1.49742234E-003  1.24431209E-001
Al  7.50766584E-001  1.23492724E-001  1.23284762E-001
Al  7.50359671E-001  1.90159276E-003  2.52474492E-001
Al  8.75484195E-001  1.24977346E-001  2.50076507E-001
Al  8.75958324E-001  2.49779217E-003  3.74488181E-001
Al  7.47793349E-001  1.24899598E-001  3.72542204E-001
Al  7.52370785E-001  3.35678598E-005  4.99981043E-001
Al  8.75018344E-001  1.24537245E-001  5.02491390E-001
Al  8.74853450E-001  1.68675337E-004  6.27177368E-001
Al  7.51271892E-001  1.25080180E-001  6.24968295E-001
Al  7.49373710E-001  2.65824224E-004  7.50306385E-001
Al  8.75036533E-001  1.25311340E-001  7.49990680E-001
Al  8.74947740E-001  1.43627732E-003  8.75050185E-001
Al  7.49484740E-001  1.22502574E-001  8.76285750E-001
Al  7.50233908E-001  2.51986100E-001  -5.22004640E-004
Al  8.75491901E-001  3.77478372E-001  6.26598783E-004
Al  8.72759603E-001  2.49808999E-001  1.24968288E-001
Al  7.49973654E-001  3.75381240E-001  1.24913057E-001
Al  7.51064151E-001  2.52465084E-001  2.50129552E-001
Al  8.77465855E-001  3.72511206E-001  2.47804971E-001
Al  8.75503801E-001  2.50098776E-001  3.74548667E-001
Al  7.47501686E-001  3.75310386E-001  3.75685221E-001
Al  7.50727356E-001  2.50008391E-001  4.97974351E-001
Al  8.76643574E-001  3.72542949E-001  5.01422416E-001
Al  8.74846289E-001  2.51360283E-001  6.24786759E-001
Al  7.49884050E-001  3.74903041E-001  6.24617829E-001
Al  7.49691009E-001  2.50361591E-001  7.49418661E-001
Al  8.72513559E-001  3.77103022E-001  7.49260929E-001
Al  8.73665241E-001  2.49991539E-001  8.74860870E-001
Al  7.49192140E-001  3.73386037E-001  8.77493359E-001
Al  7.50664428E-001  4.99379448E-001  6.61267550E-004
Al  8.75061437E-001  6.25104326E-001  -2.35174053E-003
Al  8.72730158E-001  4.99923165E-001  1.27365686E-001
Al  7.50258415E-001  6.22964745E-001  1.22522061E-001
Al  7.48861856E-001  5.01522631E-001  2.50395240E-001
Al  8.75116849E-001  6.26162472E-001  2.51497896E-001
Al  8.74217798E-001  4.97504041E-001  3.75885027E-001
Al  7.49965454E-001  6.24941660E-001  3.75121524E-001
Al  7.47941527E-001  4.99898218E-001  4.97675002E-001
Al  8.77470361E-001  6.25029964E-001  4.98780172E-001
Al  8.75628474E-001  5.02436241E-001  6.24991413E-001
Al  7.47747278E-001  6.24842954E-001  6.25028161E-001
Al  7.48415774E-001  4.99972661E-001  7.49973977E-001
Al  8.75109814E-001  6.24772885E-001  7.50023501E-001
Al  8.75057060E-001  5.00842614E-001  8.73070342E-001
Al  7.48002590E-001  6.24714048E-001  8.75439855E-001
Al  7.52088655E-001  7.49770358E-001  1.57692931E-003
Al  8.72515582E-001  8.77395090E-001  -1.68217166E-003
Al  8.75675633E-001  7.50027957E-001  1.24280497E-001
Al  7.47524831E-001  8.75807508E-001  1.27493748E-001
Al  7.52450406E-001  7.50972005E-001  2.49828066E-001
Al  8.74425534E-001  8.75427809E-001  2.49981768E-001
Al  8.75019076E-001  7.50988180E-001  3.75018693E-001
Al  7.49325980E-001  8.75062538E-001  3.75078361E-001
Al  7.48771449E-001  7.50237803E-001  4.99915879E-001
Al  8.74990289E-001  8.77463493E-001  4.99991245E-001
Al  8.75022952E-001  7.47869973E-001  6.25008747E-001
Al  7.50069861E-001  8.74504291E-001  6.22637758E-001
Al  7.47633931E-001  7.48685460E-001  7.49965154E-001
Al  8.77192316E-001  8.74977968E-001  7.49642004E-001
Al  8.73451548E-001  7.50181309E-001  8.72528564E-001
Al  7.49297994E-001  8.72852028E-001  8.75036371E-001
K_POINTS automatic
2 2 2 1 1 1
