&CONTROL
restart_mode = 'from_scratch',
calculation = 'scf',
outdir = '/gpfs/bb/bxp912/scratch',
pseudo_dir = '/gpfs/bb/bxp912/pseudopotentials',
prefix = '1.44000000E-001',
etot_conv_thr = 1.00000000E-007,
forc_conv_thr = 1.00000000E-007,
nstep = 200,
tprnfor = .true.,
tstress = .true.,
disk_io = 'low',
/
&SYSTEM
ibrav = 14,
celldm(1) = 8.07000000E+000,
celldm(2) = 1.00000000E+000,
celldm(3) = 1.00000000E+000,
celldm(4) = 0.00000000E+000,
celldm(5) = 0.00000000E+000,
celldm(6) = 0.00000000E+000,
nat = 32,
ntyp = 1,
ecutwfc = 35,
ecutrho = 208,
occupations = 'smearing',
smearing = 'mv',
degauss = 5.00000007E-002,
/
&ELECTRONS
diagonalization = 'david',
mixing_mode = plain,
mixing_beta = 6.99999988E-001,
conv_thr = 1.00000000E-007,
/
&IONS
ion_dynamics = 'bfgs',
/
&CELL
cell_dynamics = 'bfgs',
press = 0.00000000E+000,
cell_factor = 2.00000000E+000,
/
ATOMIC_SPECIES
Al  2.69815390E+001  Al.pbe-n-kjpaw_psl.0.1.UPF
ATOMIC_POSITIONS crystal
Al  3.79035503E-003  4.21186077E-003  4.05086090E-003
Al  2.50356058E-001  2.50214281E-001  -1.69045795E-005
Al  2.50375758E-001  -3.74278417E-005  2.48954394E-001
Al  2.98598822E-004  2.54989299E-001  2.54572543E-001
Al  -1.81033328E-003  -3.53773926E-004  5.00017956E-001
Al  2.49879660E-001  2.50036311E-001  4.98394912E-001
Al  2.51457031E-001  -6.21000947E-004  7.48216731E-001
Al  4.80343218E-003  2.48833830E-001  7.52937064E-001
Al  3.50087072E-004  4.99963642E-001  -1.68673619E-005
Al  2.45929129E-001  7.49900244E-001  -4.71144615E-003
Al  2.51007115E-001  5.00511523E-001  2.54026413E-001
Al  -3.62058968E-004  7.47792087E-001  2.49824265E-001
Al  4.97780473E-003  4.95775477E-001  4.99482237E-001
Al  2.49716759E-001  7.49865466E-001  4.95940306E-001
Al  2.46329557E-001  5.04595407E-001  7.48520366E-001
Al  -3.86715676E-003  7.50067396E-001  7.50231744E-001
Al  4.98713036E-001  1.57756021E-004  -1.41499282E-003
Al  7.48237884E-001  2.50150298E-001  4.34592940E-003
Al  7.54993762E-001  -1.12754995E-003  2.49963284E-001
Al  4.98295671E-001  2.54972180E-001  2.47443818E-001
Al  5.04991603E-001  2.95122114E-003  5.00758988E-001
Al  7.50065798E-001  2.51249755E-001  5.01270750E-001
Al  7.49884470E-001  1.60314877E-003  7.50780004E-001
Al  5.00367597E-001  2.54428210E-001  7.45505897E-001
Al  5.01776554E-001  4.99623088E-001  -4.99944740E-003
Al  7.49628088E-001  7.50207224E-001  3.99609338E-003
Al  7.51785082E-001  4.99782375E-001  2.45348176E-001
Al  5.04943786E-001  7.49963243E-001  2.48128657E-001
Al  4.96699487E-001  5.00190163E-001  4.99961287E-001
Al  7.49360269E-001  7.45009564E-001  5.00142588E-001
Al  7.50626951E-001  4.99684282E-001  7.49175947E-001
Al  5.03149420E-001  7.45992775E-001  7.45161257E-001
K_POINTS automatic
2 2 2 1 1 1
