&CONTROL
restart_mode = 'from_scratch',
calculation = 'scf',
outdir = '/gpfs/bb/bxp912/scratch',
pseudo_dir = '/gpfs/bb/bxp912/pseudopotentials',
prefix = '3.00000000E-001',
etot_conv_thr = 1.00000000E-007,
forc_conv_thr = 1.00000000E-007,
nstep = 200,
tprnfor = .true.,
tstress = .true.,
disk_io = 'low',
/
&SYSTEM
ibrav = 14,
celldm(1) = 3.05001797E+001,
celldm(2) = 1.00000000E+000,
celldm(3) = 1.00000000E+000,
celldm(4) = 0.00000000E+000,
celldm(5) = 0.00000000E+000,
celldm(6) = 0.00000000E+000,
nat = 256,
ntyp = 1,
ecutwfc = 35,
ecutrho = 208,
occupations = 'smearing',
smearing = 'mv',
degauss = 5.00000007E-002,
/
&ELECTRONS
diagonalization = 'david',
mixing_mode = plain,
mixing_beta = 6.99999988E-001,
conv_thr = 1.00000000E-007,
/
&IONS
ion_dynamics = 'bfgs',
/
&CELL
cell_dynamics = 'bfgs',
press = 0.00000000E+000,
cell_factor = 2.00000000E+000,
/
ATOMIC_SPECIES
Al  2.69815390E+001  Al.pbe-n-kjpaw_psl.0.1.UPF
ATOMIC_POSITIONS crystal
Al  8.65569711E-006  -1.85360726E-005  -4.37225432E-004
Al  1.24866109E-001  1.25238800E-001  -2.13050759E-003
Al  1.25262403E-001  5.88548955E-004  1.24601468E-001
Al  2.40814877E-003  1.25126401E-001  1.22871521E-001
Al  -6.08282318E-004  -5.88917825E-004  2.50063799E-001
Al  1.25362617E-001  1.24981361E-001  2.48906261E-001
Al  1.27360075E-001  3.17606022E-004  3.75027201E-001
Al  4.17045530E-004  1.23090263E-001  3.74235493E-001
Al  -2.39672120E-004  1.30457683E-004  4.98665778E-001
Al  1.25040390E-001  1.25019444E-001  5.00294812E-001
Al  1.24096226E-001  -1.32458249E-003  6.24135953E-001
Al  -2.18689500E-003  1.24936169E-001  6.25034529E-001
Al  9.20037699E-005  -2.74635629E-005  7.49867234E-001
Al  1.26493611E-001  1.25581330E-001  7.51451889E-001
Al  1.25104504E-001  -7.88177796E-004  8.74106203E-001
Al  8.70306643E-005  1.23749980E-001  8.74303427E-001
Al  5.13961103E-005  2.49898631E-001  -9.80564086E-005
Al  1.27358013E-001  3.77347087E-001  -2.61242689E-004
Al  1.24407585E-001  2.49321366E-001  1.27334626E-001
Al  -2.04084125E-003  3.75744863E-001  1.25184889E-001
Al  6.52420704E-004  2.49926574E-001  2.49951913E-001
Al  1.27481563E-001  3.74178169E-001  2.48279700E-001
Al  1.24859116E-001  2.50046840E-001  3.76010802E-001
Al  -2.11459920E-003  3.72710794E-001  3.75018158E-001
Al  5.37134262E-004  2.51871284E-001  4.98246195E-001
Al  1.27466871E-001  3.74926534E-001  5.02221528E-001
Al  1.25147185E-001  2.52006509E-001  6.24443486E-001
Al  -1.46895760E-003  3.75103318E-001  6.25008421E-001
Al  1.81185755E-005  2.51078054E-001  7.51500270E-001
Al  1.24980223E-001  3.75018785E-001  7.49911603E-001
Al  1.27376151E-001  2.50018142E-001  8.74190274E-001
Al  1.31100028E-004  3.75108994E-001  8.74850737E-001
Al  -3.83147932E-004  5.02483723E-001  1.50366124E-003
Al  1.23840595E-001  6.25195911E-001  -1.62286583E-004
Al  1.24946004E-001  5.01462726E-001  1.26059972E-001
Al  4.51774356E-004  6.25042705E-001  1.26687242E-001
Al  -2.67808360E-005  4.99506618E-001  2.50189460E-001
Al  1.24791555E-001  6.22529655E-001  2.49991272E-001
Al  1.26080543E-001  4.99600766E-001  3.73907021E-001
Al  2.20156195E-004  6.25278266E-001  3.75023900E-001
Al  -2.11674898E-003  4.98220386E-001  5.02249322E-001
Al  1.25034944E-001  6.24942374E-001  5.02493862E-001
Al  1.27408421E-001  5.00129790E-001  6.27470797E-001
Al  -3.26891504E-005  6.24772721E-001  6.25429116E-001
Al  -8.95834708E-006  5.00009101E-001  7.49967087E-001
Al  1.24859645E-001  6.25059079E-001  7.48183188E-001
Al  1.25028819E-001  4.99991576E-001  8.75385434E-001
Al  -5.40698900E-004  6.23017972E-001  8.74429211E-001
Al  -2.91997118E-005  7.50937475E-001  -8.37026390E-006
Al  1.27499990E-001  8.75167140E-001  -2.01138320E-003
Al  1.22505026E-001  7.52118569E-001  1.24249269E-001
Al  -7.83752940E-004  8.75019580E-001  1.25009337E-001
Al  8.42966982E-006  7.49846388E-001  2.49946753E-001
Al  1.26963413E-001  8.76674718E-001  2.51332652E-001
Al  1.23707373E-001  7.52479516E-001  3.76768422E-001
Al  3.82803866E-004  8.75294430E-001  3.75073143E-001
Al  3.52640891E-004  7.50958689E-001  5.02498847E-001
Al  1.27444468E-001  8.77368366E-001  4.98216576E-001
Al  1.25165938E-001  7.49981747E-001  6.26326152E-001
Al  1.45285091E-003  8.75112690E-001  6.25172004E-001
Al  2.06074547E-004  7.49922812E-001  7.52496697E-001
Al  1.24356956E-001  8.76903888E-001  7.52425742E-001
Al  1.24822172E-001  7.52106148E-001  8.74668818E-001
Al  -8.66457071E-006  8.74399338E-001  8.74665586E-001
Al  2.49268557E-001  -8.59913103E-006  1.83546842E-005
Al  3.76655022E-001  1.22509694E-001  -4.14203099E-004
Al  3.77375840E-001  3.41557843E-004  1.24523038E-001
Al  2.49806158E-001  1.25019218E-001  1.22718124E-001
Al  2.49942281E-001  -2.49537805E-003  2.48550829E-001
Al  3.77276033E-001  1.24615313E-001  2.51238004E-001
Al  3.75645128E-001  2.49659531E-003  3.75020261E-001
Al  2.50018120E-001  1.24968826E-001  3.72587865E-001
Al  2.47500088E-001  1.00597658E-004  4.97666649E-001
Al  3.75187925E-001  1.25857133E-001  5.00102603E-001
Al  3.73275796E-001  -4.89755978E-005  6.22516825E-001
Al  2.50008529E-001  1.25018344E-001  6.26488663E-001
Al  2.50019618E-001  2.17193554E-003  7.52068062E-001
Al  3.74473131E-001  1.24867992E-001  7.52438559E-001
Al  3.75362684E-001  -1.51927532E-004  8.73557132E-001
Al  2.50399799E-001  1.24938549E-001  8.76296214E-001
Al  2.49967237E-001  2.52400370E-001  9.30006612E-004
Al  3.73867438E-001  3.74777660E-001  -8.47256350E-004
Al  3.76705985E-001  2.47570717E-001  1.26627079E-001
Al  2.49981259E-001  3.74644077E-001  1.24970256E-001
Al  2.50323816E-001  2.51140197E-001  2.50008373E-001
Al  3.74921187E-001  3.76324564E-001  2.50084918E-001
Al  3.73354701E-001  2.49748003E-001  3.75043420E-001
Al  2.50008701E-001  3.77288471E-001  3.73031762E-001
Al  2.50570575E-001  2.51262139E-001  4.98481373E-001
Al  3.75008432E-001  3.75844059E-001  4.99762943E-001
Al  3.74443751E-001  2.49825475E-001  6.24708141E-001
Al  2.51091168E-001  3.76887644E-001  6.25524675E-001
Al  2.50934963E-001  2.52216081E-001  7.50366018E-001
Al  3.72554861E-001  3.75292302E-001  7.50262215E-001
Al  3.75896736E-001  2.49134384E-001  8.74267128E-001
Al  2.49447054E-001  3.74991341E-001  8.76427325E-001
Al  2.50070603E-001  5.02348513E-001  8.53866367E-006
Al  3.74991610E-001  6.22651853E-001  1.53892995E-003
Al  3.72765896E-001  4.99614877E-001  1.27464683E-001
Al  2.48483221E-001  6.22500545E-001  1.22569434E-001
Al  2.47715613E-001  5.00081188E-001  2.50008526E-001
Al  3.77172799E-001  6.25617368E-001  2.50602838E-001
Al  3.75019249E-001  5.02497432E-001  3.75340490E-001
Al  2.50129742E-001  6.22875969E-001  3.75348822E-001
Al  2.50018721E-001  5.00018832E-001  4.99904192E-001
Al  3.74303298E-001  6.26814041E-001  5.01327406E-001
Al  3.76011737E-001  5.00025280E-001  6.24929201E-001
Al  2.49215009E-001  6.22991884E-001  6.24923402E-001
Al  2.48317222E-001  4.99741073E-001  7.51477336E-001
Al  3.73161549E-001  6.27488721E-001  7.49934808E-001
Al  3.77421561E-001  4.99758560E-001  8.72503665E-001
Al  2.49874589E-001  6.27115078E-001  8.74980577E-001
Al  2.48959027E-001  7.50356689E-001  -1.97542526E-003
Al  3.74806694E-001  8.77494726E-001  -2.02391388E-003
Al  3.74474137E-001  7.49968815E-001  1.25113132E-001
Al  2.50182501E-001  8.74537711E-001  1.22597586E-001
Al  2.50044728E-001  7.48088018E-001  2.48594915E-001
Al  3.73920209E-001  8.76124107E-001  2.47541761E-001
Al  3.77477852E-001  7.51237997E-001  3.74617453E-001
Al  2.50701335E-001  8.75018108E-001  3.75033233E-001
Al  2.50759276E-001  7.52298209E-001  4.99573281E-001
Al  3.74942034E-001  8.76716267E-001  5.00928465E-001
Al  3.76784652E-001  7.50845258E-001  6.24793442E-001
Al  2.51369985E-001  8.72607562E-001  6.23138682E-001
Al  2.49991520E-001  7.49455905E-001  7.50009508E-001
Al  3.75825116E-001  8.74560661E-001  7.50008720E-001
Al  3.75297370E-001  7.49972237E-001  8.73765805E-001
Al  2.50009650E-001  8.72576894E-001  8.72558570E-001
Al  5.00420163E-001  1.69890687E-003  1.26206705E-004
Al  6.25793059E-001  1.23175525E-001  -1.51608382E-003
Al  6.25673312E-001  9.18660253E-004  1.25018414E-001
Al  4.99906723E-001  1.24966802E-001  1.23850981E-001
Al  5.00887592E-001  -8.67877271E-006  2.49033615E-001
Al  6.27275602E-001  1.26191430E-001  2.48033469E-001
Al  6.25731587E-001  -1.97423908E-003  3.73045510E-001
Al  4.98161131E-001  1.25268098E-001  3.74917907E-001
Al  5.00101896E-001  -8.41992927E-006  5.02481456E-001
Al  6.27499855E-001  1.24244420E-001  5.00296334E-001
Al  6.26696618E-001  1.81759564E-004  6.24981314E-001
Al  4.99981378E-001  1.24733446E-001  6.26265393E-001
Al  5.01015869E-001  -2.04177120E-003  7.50112128E-001
Al  6.22795452E-001  1.24872988E-001  7.49413165E-001
Al  6.25022655E-001  -8.17050426E-004  8.73418337E-001
Al  5.02078790E-001  1.25034678E-001  8.75008580E-001
Al  4.99684943E-001  2.50123266E-001  -1.09721591E-003
Al  6.24990208E-001  3.77473484E-001  1.49753275E-004
Al  6.25027315E-001  2.50032362E-001  1.25440458E-001
Al  5.02276107E-001  3.76168493E-001  1.24247614E-001
Al  4.99721510E-001  2.49287339E-001  2.47619361E-001
Al  6.24876347E-001  3.75326399E-001  2.49835571E-001
Al  6.24990944E-001  2.51761641E-001  3.74929153E-001
Al  4.98500308E-001  3.76236094E-001  3.75252465E-001
Al  5.00982964E-001  2.49927226E-001  4.98969235E-001
Al  6.23577839E-001  3.74981638E-001  4.99724197E-001
Al  6.25804163E-001  2.48430544E-001  6.25925304E-001
Al  4.99977523E-001  3.77074201E-001  6.25029483E-001
Al  4.99476621E-001  2.52483558E-001  7.51953657E-001
Al  6.25094797E-001  3.72999837E-001  7.50024065E-001
Al  6.22553519E-001  2.49950704E-001  8.74861155E-001
Al  4.97948867E-001  3.77398176E-001  8.72592435E-001
Al  4.98160571E-001  5.00008916E-001  2.48872328E-003
Al  6.24323195E-001  6.25034058E-001  -1.42802919E-003
Al  6.26394011E-001  4.99890866E-001  1.25086573E-001
Al  5.01008052E-001  6.27399361E-001  1.25176606E-001
Al  4.99875441E-001  4.99980317E-001  2.49321102E-001
Al  6.22544753E-001  6.27484924E-001  2.49741600E-001
Al  6.23915108E-001  5.00551804E-001  3.76792015E-001
Al  4.98367451E-001  6.25018114E-001  3.77415983E-001
Al  4.97547263E-001  5.02288031E-001  4.97751198E-001
Al  6.24880813E-001  6.25995043E-001  4.99981432E-001
Al  6.24888319E-001  4.99958714E-001  6.25009263E-001
Al  5.00388684E-001  6.24952322E-001  6.22767922E-001
Al  5.02109439E-001  5.00430597E-001  7.49814047E-001
Al  6.22934256E-001  6.25035065E-001  7.52454193E-001
Al  6.22796473E-001  4.97505748E-001  8.75024635E-001
Al  4.98739375E-001  6.23230564E-001  8.77254788E-001
Al  4.99981885E-001  7.49991227E-001  4.56392728E-005
Al  6.24788984E-001  8.74932987E-001  1.84401739E-005
Al  6.24007420E-001  7.47687971E-001  1.22815444E-001
Al  4.98885104E-001  8.74667128E-001  1.26939594E-001
Al  4.99991595E-001  7.49958359E-001  2.49956165E-001
Al  6.23338069E-001  8.72532065E-001  2.47995267E-001
Al  6.25132324E-001  7.49889565E-001  3.75135205E-001
Al  4.98156897E-001  8.75243729E-001  3.74991038E-001
Al  5.00008535E-001  7.52447285E-001  5.00527840E-001
Al  6.23358966E-001  8.74399814E-001  5.00037739E-001
Al  6.24366554E-001  7.50668314E-001  6.27029818E-001
Al  4.97596103E-001  8.77390779E-001  6.25333288E-001
Al  4.99950722E-001  7.48108701E-001  7.52177495E-001
Al  6.26261721E-001  8.74364175E-001  7.50008371E-001
Al  6.27446195E-001  7.51024491E-001  8.76976306E-001
Al  5.00422114E-001  8.75514718E-001  8.74415694E-001
Al  7.47920589E-001  -8.44304324E-006  3.97622484E-005
Al  8.74465274E-001  1.25071867E-001  8.38778607E-006
Al  8.74775405E-001  -1.20157562E-004  1.24913491E-001
Al  7.50023610E-001  1.25783802E-001  1.24338751E-001
Al  7.47743561E-001  4.50180490E-005  2.49991344E-001
Al  8.74475277E-001  1.24444985E-001  2.49910734E-001
Al  8.75512280E-001  -1.14012601E-003  3.75163301E-001
Al  7.49370968E-001  1.26209504E-001  3.77380763E-001
Al  7.48876677E-001  -4.79173919E-005  4.99991560E-001
Al  8.77485313E-001  1.22677019E-001  5.01779508E-001
Al  8.74990897E-001  1.99661173E-004  6.26125856E-001
Al  7.49819271E-001  1.24947421E-001  6.24558715E-001
Al  7.50246677E-001  -6.69230082E-004  7.49865930E-001
Al  8.74977522E-001  1.23597276E-001  7.51465669E-001
Al  8.73159197E-001  1.52874246E-004  8.75596818E-001
Al  7.52265214E-001  1.24982436E-001  8.77455155E-001
Al  7.50495270E-001  2.47683494E-001  -8.41753885E-006
Al  8.72511534E-001  3.72695894E-001  -1.35007336E-004
Al  8.73466703E-001  2.47503363E-001  1.24915020E-001
Al  7.47804941E-001  3.76758081E-001  1.22582937E-001
Al  7.50340362E-001  2.48717701E-001  2.51972588E-001
Al  8.75138863E-001  3.73122012E-001  2.50125396E-001
Al  8.72903614E-001  2.49862568E-001  3.76334831E-001
Al  7.49982719E-001  3.74991624E-001  3.76166958E-001
Al  7.49441108E-001  2.50651078E-001  4.98753218E-001
Al  8.75391853E-001  3.75565606E-001  4.97535475E-001
Al  8.74991535E-001  2.52486397E-001  6.25008568E-001
Al  7.49305671E-001  3.73072417E-001  6.22849769E-001
Al  7.50038630E-001  2.50018108E-001  7.50980698E-001
Al  8.77415346E-001  3.75462947E-001  7.50113510E-001
Al  8.77288167E-001  2.49122490E-001  8.72991952E-001
Al  7.49710033E-001  3.75381062E-001  8.74751081E-001
Al  7.49991535E-001  5.02296214E-001  -1.89479466E-003
Al  8.72936364E-001  6.24726774E-001  -1.98325224E-005
Al  8.75160368E-001  5.01409900E-001  1.24981576E-001
Al  7.52229284E-001  6.25274873E-001  1.27035699E-001
Al  7.47562794E-001  4.99980818E-001  2.52101473E-001
Al  8.75067963E-001  6.25647136E-001  2.50211913E-001
Al  8.77185937E-001  5.01186602E-001  3.75574931E-001
Al  7.50018111E-001  6.24981194E-001  3.75142084E-001
Al  7.50405482E-001  4.97596833E-001  5.00018229E-001
Al  8.75601840E-001  6.22540920E-001  4.97778661E-001
Al  8.75018172E-001  4.99925310E-001  6.25206877E-001
Al  7.50619122E-001  6.22677753E-001  6.24205165E-001
Al  7.49484820E-001  4.99963199E-001  7.50488278E-001
Al  8.76176438E-001  6.26586630E-001  7.49814021E-001
Al  8.77188592E-001  5.00637548E-001  8.75009182E-001
Al  7.49600697E-001  6.24852444E-001  8.74911343E-001
Al  7.49927914E-001  7.49224770E-001  -1.91474890E-003
Al  8.73689375E-001  8.74887749E-001  -2.29264286E-003
Al  8.73908564E-001  7.47750721E-001  1.22746106E-001
Al  7.49280852E-001  8.74637335E-001  1.24619263E-001
Al  7.52162329E-001  7.50018876E-001  2.51389434E-001
Al  8.75080318E-001  8.73205723E-001  2.51816483E-001
Al  8.74440391E-001  7.52495095E-001  3.74218933E-001
Al  7.49991628E-001  8.73557181E-001  3.75103412E-001
Al  7.50023638E-001  7.50203894E-001  5.00019560E-001
Al  8.75041893E-001  8.74775400E-001  4.97669534E-001
Al  8.75309246E-001  7.52008293E-001  6.27065115E-001
Al  7.49731866E-001  8.76986903E-001  6.27499996E-001
Al  7.49945730E-001  7.51802392E-001  7.49932333E-001
Al  8.74294791E-001  8.74962886E-001  7.50272603E-001
Al  8.75259562E-001  7.51802614E-001  8.72862780E-001
Al  7.51226856E-001  8.74981390E-001  8.75019117E-001
K_POINTS automatic
2 2 2 1 1 1
