&CONTROL
restart_mode = 'from_scratch',
calculation = 'scf',
outdir = '/gpfs/bb/bxp912/scratch',
pseudo_dir = '/gpfs/bb/bxp912/pseudopotentials',
prefix = '3.00000000E-001',
etot_conv_thr = 1.00000000E-007,
forc_conv_thr = 1.00000000E-007,
nstep = 200,
tprnfor = .true.,
tstress = .true.,
disk_io = 'low',
/
&SYSTEM
ibrav = 14,
celldm(1) = 3.05001797E+001,
celldm(2) = 1.00000000E+000,
celldm(3) = 1.00000000E+000,
celldm(4) = 0.00000000E+000,
celldm(5) = 0.00000000E+000,
celldm(6) = 0.00000000E+000,
nat = 256,
ntyp = 1,
ecutwfc = 35,
ecutrho = 208,
occupations = 'smearing',
smearing = 'mv',
degauss = 5.00000007E-002,
/
&ELECTRONS
diagonalization = 'david',
mixing_mode = plain,
mixing_beta = 6.99999988E-001,
conv_thr = 1.00000000E-007,
/
&IONS
ion_dynamics = 'bfgs',
/
&CELL
cell_dynamics = 'bfgs',
press = 0.00000000E+000,
cell_factor = 2.00000000E+000,
/
ATOMIC_SPECIES
Al  2.69815390E+001  Al.pbe-n-kjpaw_psl.0.1.UPF
ATOMIC_POSITIONS crystal
Al  -1.04294124E-003  -3.12975989E-004  2.85774418E-005
Al  1.25137692E-001  1.22593705E-001  -2.15235527E-005
Al  1.23008081E-001  -2.14926882E-003  1.26660584E-001
Al  5.11293288E-004  1.23910272E-001  1.24570279E-001
Al  -6.71883364E-005  6.96453874E-004  2.50104365E-001
Al  1.27484373E-001  1.25098029E-001  2.51287309E-001
Al  1.25328234E-001  1.87533394E-005  3.74449498E-001
Al  2.47842633E-004  1.24889901E-001  3.77039934E-001
Al  -1.84117426E-005  -1.86794346E-005  4.99301751E-001
Al  1.25250229E-001  1.26830243E-001  5.02191933E-001
Al  1.25135537E-001  1.66039014E-003  6.24079990E-001
Al  -3.95222761E-005  1.27113808E-001  6.24234525E-001
Al  -1.81601208E-003  8.99041733E-004  7.47730895E-001
Al  1.24981703E-001  1.24693245E-001  7.49451150E-001
Al  1.25431623E-001  1.77174124E-003  8.72518330E-001
Al  -1.06381502E-003  1.27499955E-001  8.75018122E-001
Al  -6.08871849E-004  2.50088116E-001  -3.10081058E-005
Al  1.25008402E-001  3.74547734E-001  2.49844129E-003
Al  1.22990833E-001  2.52217345E-001  1.22508601E-001
Al  1.28528176E-003  3.75672896E-001  1.25019267E-001
Al  1.85240269E-005  2.50322406E-001  2.49966354E-001
Al  1.26707570E-001  3.75923566E-001  2.49981289E-001
Al  1.24991479E-001  2.48519955E-001  3.72656512E-001
Al  8.46291287E-006  3.75198071E-001  3.75608233E-001
Al  -1.89803320E-005  2.52418633E-001  4.99973287E-001
Al  1.26940542E-001  3.74981492E-001  5.00008632E-001
Al  1.25171838E-001  2.50259566E-001  6.25422647E-001
Al  9.57665503E-005  3.75137978E-001  6.27065686E-001
Al  2.46552000E-004  2.48733621E-001  7.50416811E-001
Al  1.22518770E-001  3.76382536E-001  7.49981616E-001
Al  1.25832779E-001  2.49712723E-001  8.72929692E-001
Al  -2.48303645E-003  3.74538071E-001  8.73558787E-001
Al  5.27035194E-004  4.97575478E-001  -2.17245482E-003
Al  1.26131735E-001  6.24746338E-001  -8.38526683E-006
Al  1.26991314E-001  5.02494840E-001  1.25191588E-001
Al  3.95977010E-004  6.25520588E-001  1.25943917E-001
Al  -9.38777482E-005  5.00068024E-001  2.48188284E-001
Al  1.24945947E-001  6.25019646E-001  2.49187138E-001
Al  1.25471160E-001  5.00684425E-001  3.74184572E-001
Al  1.85804836E-005  6.25192897E-001  3.73674302E-001
Al  8.56121624E-004  5.01194565E-001  4.99814045E-001
Al  1.22644033E-001  6.26058558E-001  4.98887126E-001
Al  1.25160344E-001  4.99797631E-001  6.24700934E-001
Al  3.32655959E-004  6.23204076E-001  6.22520661E-001
Al  -2.44306336E-003  5.00150321E-001  7.50051560E-001
Al  1.24981878E-001  6.24652386E-001  7.49921295E-001
Al  1.25018117E-001  5.00021214E-001  8.74954587E-001
Al  2.07307829E-004  6.24888281E-001  8.72903354E-001
Al  6.12872484E-004  7.49838927E-001  1.36463893E-003
Al  1.24886865E-001  8.74991568E-001  8.77905927E-006
Al  1.27274776E-001  7.50009074E-001  1.25020261E-001
Al  -8.76708798E-004  8.76709859E-001  1.24441880E-001
Al  -2.44518643E-003  7.50098742E-001  2.49899170E-001
Al  1.25085993E-001  8.72640731E-001  2.48712630E-001
Al  1.25018107E-001  7.47606586E-001  3.76742782E-001
Al  -9.76325786E-004  8.74869550E-001  3.75982136E-001
Al  1.78352973E-003  7.50819926E-001  4.99843058E-001
Al  1.24288325E-001  8.72500023E-001  5.01055286E-001
Al  1.27091737E-001  7.50366696E-001  6.27430687E-001
Al  -1.45211982E-003  8.77031534E-001  6.22772925E-001
Al  9.41058097E-005  7.48112816E-001  7.50760286E-001
Al  1.25019352E-001  8.74906991E-001  7.48075740E-001
Al  1.25408379E-001  7.47887551E-001  8.74522629E-001
Al  -1.16303179E-003  8.73532052E-001  8.74869968E-001
Al  2.49981977E-001  2.26114431E-003  3.51521639E-004
Al  3.75143507E-001  1.24548509E-001  -3.15397161E-004
Al  3.74950700E-001  -2.06468776E-003  1.24909751E-001
Al  2.50017580E-001  1.25140495E-001  1.25239398E-001
Al  2.48088892E-001  6.26560162E-004  2.48519415E-001
Al  3.75121737E-001  1.23042519E-001  2.49918625E-001
Al  3.75420933E-001  6.47261838E-005  3.77121149E-001
Al  2.49393447E-001  1.24517957E-001  3.73742090E-001
Al  2.49968025E-001  1.97888894E-005  5.00117247E-001
Al  3.72559172E-001  1.25985052E-001  4.97666461E-001
Al  3.75850456E-001  6.25081534E-004  6.24364793E-001
Al  2.47814389E-001  1.25595434E-001  6.27486854E-001
Al  2.49562719E-001  2.47006578E-003  7.48788434E-001
Al  3.74420043E-001  1.24739317E-001  7.47650757E-001
Al  3.75018668E-001  -9.17846120E-006  8.74991355E-001
Al  2.50018250E-001  1.26234316E-001  8.74163676E-001
Al  2.52457124E-001  2.51890271E-001  2.24537416E-003
Al  3.74964213E-001  3.74226208E-001  2.37551057E-003
Al  3.74312921E-001  2.47623087E-001  1.27492942E-001
Al  2.48033965E-001  3.75166424E-001  1.24822365E-001
Al  2.50116078E-001  2.50059203E-001  2.49937465E-001
Al  3.74981548E-001  3.72520908E-001  2.50332067E-001
Al  3.77015387E-001  2.47597345E-001  3.75124579E-001
Al  2.48683154E-001  3.77299634E-001  3.74951049E-001
Al  2.49687824E-001  2.47567987E-001  4.98094086E-001
Al  3.74831328E-001  3.77498990E-001  5.02390701E-001
Al  3.75545745E-001  2.50193881E-001  6.22758188E-001
Al  2.52480532E-001  3.76801619E-001  6.26371469E-001
Al  2.49574005E-001  2.48911046E-001  7.50369186E-001
Al  3.72671785E-001  3.74970864E-001  7.49545781E-001
Al  3.73494289E-001  2.49980976E-001  8.75979228E-001
Al  2.50057330E-001  3.74965466E-001  8.74540383E-001
Al  2.50252512E-001  5.00285183E-001  2.29935392E-003
Al  3.72875251E-001  6.24420922E-001  -2.49317755E-003
Al  3.74675294E-001  4.97802808E-001  1.24548823E-001
Al  2.50840855E-001  6.25092830E-001  1.22572861E-001
Al  2.47509621E-001  5.02492525E-001  2.49916925E-001
Al  3.73427678E-001  6.26243775E-001  2.47537751E-001
Al  3.73427538E-001  5.02451915E-001  3.74350971E-001
Al  2.50098760E-001  6.22913969E-001  3.74304131E-001
Al  2.47762434E-001  5.00031406E-001  4.99908871E-001
Al  3.75018430E-001  6.24897469E-001  5.00123428E-001
Al  3.76571711E-001  5.00591389E-001  6.25297988E-001
Al  2.48082501E-001  6.22799098E-001  6.27011353E-001
Al  2.52483204E-001  5.02087322E-001  7.47631271E-001
Al  3.74542645E-001  6.25009099E-001  7.50298120E-001
Al  3.72564840E-001  5.00093191E-001  8.76269786E-001
Al  2.50254131E-001  6.24951045E-001  8.72760060E-001
Al  2.49898647E-001  7.48019951E-001  1.88352631E-004
Al  3.74925039E-001  8.74870054E-001  -2.29993441E-005
Al  3.74835041E-001  7.47651720E-001  1.24327527E-001
Al  2.49480012E-001  8.75126152E-001  1.24714680E-001
Al  2.50302653E-001  7.49979714E-001  2.50028475E-001
Al  3.72501769E-001  8.75319428E-001  2.49981359E-001
Al  3.75168295E-001  7.50429407E-001  3.74932732E-001
Al  2.49501089E-001  8.74990934E-001  3.75876103E-001
Al  2.50349855E-001  7.50727842E-001  4.97505076E-001
Al  3.73450465E-001  8.74923424E-001  4.99966591E-001
Al  3.74796199E-001  7.50293371E-001  6.26848062E-001
Al  2.50102510E-001  8.75018887E-001  6.24330744E-001
Al  2.49979789E-001  7.50018108E-001  7.50028087E-001
Al  3.77455728E-001  8.74723840E-001  7.50018117E-001
Al  3.74991348E-001  7.49965436E-001  8.74974610E-001
Al  2.51389056E-001  8.75008501E-001  8.74577474E-001
Al  4.97852251E-001  -1.20836642E-003  -1.87525332E-005
Al  6.24171482E-001  1.24578831E-001  1.00250595E-004
Al  6.25436144E-001  2.33921935E-004  1.24705227E-001
Al  5.00836628E-001  1.25040139E-001  1.26935705E-001
Al  4.98608995E-001  -1.81296940E-003  2.51802319E-001
Al  6.26938475E-001  1.24868615E-001  2.51078649E-001
Al  6.24946410E-001  8.15137668E-004  3.74614745E-001
Al  4.99600695E-001  1.27155333E-001  3.76238793E-001
Al  5.02205219E-001  2.43946473E-003  4.97503850E-001
Al  6.22998130E-001  1.27499651E-001  5.00008738E-001
Al  6.22763015E-001  3.20467764E-004  6.24072516E-001
Al  5.02469481E-001  1.25290511E-001  6.23871030E-001
Al  4.97502447E-001  1.06286501E-003  7.49810999E-001
Al  6.24976132E-001  1.24979902E-001  7.51718711E-001
Al  6.25023529E-001  -1.63693679E-003  8.75830919E-001
Al  5.00041331E-001  1.24272899E-001  8.77131374E-001
Al  5.02283510E-001  2.51952136E-001  -1.46580877E-003
Al  6.22833534E-001  3.74061499E-001  7.57298807E-005
Al  6.25894602E-001  2.50018255E-001  1.23964121E-001
Al  4.98940349E-001  3.75427709E-001  1.25018108E-001
Al  4.99795715E-001  2.49965265E-001  2.52445651E-001
Al  6.24803454E-001  3.74902628E-001  2.52258328E-001
Al  6.25268853E-001  2.49981766E-001  3.75034240E-001
Al  4.99947744E-001  3.75628448E-001  3.74791800E-001
Al  5.01497933E-001  2.50555793E-001  4.99668354E-001
Al  6.22819034E-001  3.76349999E-001  5.00057397E-001
Al  6.26248040E-001  2.47748760E-001  6.27495790E-001
Al  4.99513177E-001  3.75083160E-001  6.24798759E-001
Al  4.99786199E-001  2.52117154E-001  7.50018151E-001
Al  6.24581260E-001  3.76189611E-001  7.50018813E-001
Al  6.26992901E-001  2.49442426E-001  8.75429676E-001
Al  4.97636820E-001  3.76433842E-001  8.74991619E-001
Al  5.00009074E-001  4.98354623E-001  -1.93579721E-005
Al  6.25683735E-001  6.26249442E-001  -2.43227387E-003
Al  6.26900655E-001  5.00681398E-001  1.22687426E-001
Al  4.98043395E-001  6.24187204E-001  1.24589680E-001
Al  5.00589407E-001  4.99273995E-001  2.48285494E-001
Al  6.24856123E-001  6.25008914E-001  2.49604643E-001
Al  6.24502002E-001  4.99322298E-001  3.74625045E-001
Al  5.02416124E-001  6.27065594E-001  3.75072499E-001
Al  5.00425617E-001  4.99910267E-001  4.99040281E-001
Al  6.25034874E-001  6.23759949E-001  4.97578573E-001
Al  6.25049459E-001  5.01871206E-001  6.25104455E-001
Al  5.00681671E-001  6.22813463E-001  6.24931645E-001
Al  4.99286845E-001  5.01336141E-001  7.48782581E-001
Al  6.25388341E-001  6.24990550E-001  7.50455911E-001
Al  6.27334966E-001  5.00008634E-001  8.75009764E-001
Al  4.97804746E-001  6.22521533E-001  8.75095984E-001
Al  4.97508773E-001  7.49551874E-001  -5.03359425E-004
Al  6.24964868E-001  8.77273456E-001  -6.28194974E-004
Al  6.25105842E-001  7.52002001E-001  1.25996170E-001
Al  5.00121261E-001  8.75327967E-001  1.25193859E-001
Al  5.01499862E-001  7.49604824E-001  2.49973836E-001
Al  6.24952293E-001  8.74128206E-001  2.49726065E-001
Al  6.25008384E-001  7.51213225E-001  3.77114440E-001
Al  4.98975103E-001  8.74655041E-001  3.74886345E-001
Al  5.02014910E-001  7.52398346E-001  4.99991593E-001
Al  6.26116772E-001  8.74065874E-001  5.00384880E-001
Al  6.23355125E-001  7.47525608E-001  6.25008457E-001
Al  4.98478654E-001  8.75883073E-001  6.25039282E-001
Al  4.97734874E-001  7.48187251E-001  7.48710867E-001
Al  6.24990579E-001  8.75020185E-001  7.50948435E-001
Al  6.23425582E-001  7.47981566E-001  8.75436222E-001
Al  4.99002968E-001  8.77059618E-001  8.75099127E-001
Al  7.50766827E-001  -3.46429793E-004  5.71003943E-004
Al  8.74971121E-001  1.24762932E-001  1.27441381E-003
Al  8.75112744E-001  -2.01271083E-005  1.25313684E-001
Al  7.47860550E-001  1.22618430E-001  1.25008685E-001
Al  7.48278594E-001  1.88096671E-003  2.51088761E-001
Al  8.74211090E-001  1.27447004E-001  2.49308650E-001
Al  8.74889668E-001  -9.20968282E-006  3.75055565E-001
Al  7.47891279E-001  1.24046755E-001  3.73608028E-001
Al  7.49353842E-001  1.64138077E-004  4.98722483E-001
Al  8.77359734E-001  1.25008373E-001  5.00018353E-001
Al  8.76218923E-001  1.83338776E-005  6.25292927E-001
Al  7.50032005E-001  1.27143217E-001  6.24982009E-001
Al  7.51906736E-001  -7.50105573E-004  7.48616385E-001
Al  8.72546474E-001  1.24864407E-001  7.50881565E-001
Al  8.74981594E-001  -3.64468328E-005  8.75708885E-001
Al  7.49981221E-001  1.26504321E-001  8.76884984E-001
Al  7.51643458E-001  2.50340089E-001  -8.78860679E-006
Al  8.74980428E-001  3.75073933E-001  6.79847207E-005
Al  8.74372802E-001  2.50080005E-001  1.25520429E-001
Al  7.51174512E-001  3.76308989E-001  1.26843492E-001
Al  7.49694578E-001  2.50569905E-001  2.47797194E-001
Al  8.75858098E-001  3.75075061E-001  2.51164001E-001
Al  8.75054923E-001  2.51154888E-001  3.75938162E-001
Al  7.48876139E-001  3.75119247E-001  3.72952660E-001
Al  7.50017243E-001  2.50024255E-001  4.99374547E-001
Al  8.76631602E-001  3.76695243E-001  4.99323294E-001
Al  8.74717279E-001  2.51662568E-001  6.27199305E-001
Al  7.49974336E-001  3.75030804E-001  6.27118662E-001
Al  7.50272328E-001  2.49508192E-001  7.51637189E-001
Al  8.73188989E-001  3.74734711E-001  7.49931456E-001
Al  8.74980563E-001  2.50008616E-001  8.73750617E-001
Al  7.50863773E-001  3.75862104E-001  8.72581404E-001
Al  7.50643842E-001  5.02216271E-001  -2.33397848E-003
Al  8.72660098E-001  6.23942028E-001  -6.08821301E-005
Al  8.74788236E-001  5.00867475E-001  1.24981442E-001
Al  7.51771221E-001  6.25378244E-001  1.27071964E-001
Al  7.48426328E-001  5.00008582E-001  2.50900758E-001
Al  8.73406327E-001  6.23451927E-001  2.49978905E-001
Al  8.76271051E-001  4.97613007E-001  3.77158738E-001
Al  7.49085594E-001  6.24991600E-001  3.75576580E-001
Al  7.52164838E-001  4.97651828E-001  4.99824520E-001
Al  8.74879690E-001  6.24873626E-001  4.97921617E-001
Al  8.77374729E-001  5.01062234E-001  6.27339669E-001
Al  7.50115492E-001  6.25532860E-001  6.25173138E-001
Al  7.48553643E-001  4.97504815E-001  7.49974764E-001
Al  8.72837717E-001  6.25723361E-001  7.50018132E-001
Al  8.76300102E-001  5.02479459E-001  8.74956436E-001
Al  7.47808546E-001  6.27021372E-001  8.75056826E-001
Al  7.52230740E-001  7.50061772E-001  1.78438770E-003
Al  8.73177234E-001  8.72776872E-001  3.25118582E-005
Al  8.75589343E-001  7.49745515E-001  1.23565044E-001
Al  7.49980333E-001  8.75023703E-001  1.27499811E-001
Al  7.52313932E-001  7.48967526E-001  2.48660755E-001
Al  8.75047988E-001  8.74130486E-001  2.49991627E-001
Al  8.75009673E-001  7.50106361E-001  3.72841684E-001
Al  7.51864312E-001  8.77126911E-001  3.74918638E-001
Al  7.50167683E-001  7.49891965E-001  4.99965965E-001
Al  8.77498172E-001  8.74980834E-001  4.99815810E-001
Al  8.72687586E-001  7.47716660E-001  6.26771378E-001
Al  7.49937437E-001  8.75106646E-001  6.24943288E-001
Al  7.50150316E-001  7.49881893E-001  7.50056214E-001
Al  8.75161122E-001  8.76684053E-001  7.51019649E-001
Al  8.75442416E-001  7.48009642E-001  8.73866249E-001
Al  7.50627943E-001  8.75518662E-001  8.75008422E-001
K_POINTS automatic
2 2 2 1 1 1
