&CONTROL
restart_mode = 'from_scratch',
calculation = 'scf',
outdir = '/gpfs/bb/bxp912/scratch',
pseudo_dir = '/gpfs/bb/bxp912/pseudopotentials',
prefix = '3.00000000E-001',
etot_conv_thr = 1.00000000E-007,
forc_conv_thr = 1.00000000E-007,
nstep = 200,
tprnfor = .true.,
tstress = .true.,
disk_io = 'low',
/
&SYSTEM
ibrav = 14,
celldm(1) = 3.05001797E+001,
celldm(2) = 1.00000000E+000,
celldm(3) = 1.00000000E+000,
celldm(4) = 0.00000000E+000,
celldm(5) = 0.00000000E+000,
celldm(6) = 0.00000000E+000,
nat = 256,
ntyp = 1,
ecutwfc = 35,
ecutrho = 208,
occupations = 'smearing',
smearing = 'mv',
degauss = 5.00000007E-002,
/
&ELECTRONS
diagonalization = 'david',
mixing_mode = plain,
mixing_beta = 6.99999988E-001,
conv_thr = 1.00000000E-007,
/
&IONS
ion_dynamics = 'bfgs',
/
&CELL
cell_dynamics = 'bfgs',
press = 0.00000000E+000,
cell_factor = 2.00000000E+000,
/
ATOMIC_SPECIES
Al  2.69815390E+001  Al.pbe-n-kjpaw_psl.0.1.UPF
ATOMIC_POSITIONS crystal
Al  7.78464726E-004  -1.20716146E-003  2.21766065E-003
Al  1.27210686E-001  1.25154447E-001  -1.60284012E-003
Al  1.22640832E-001  -9.20022859E-005  1.25254010E-001
Al  -8.31990481E-004  1.26254776E-001  1.25061367E-001
Al  -4.77218739E-004  7.34535737E-004  2.51669144E-001
Al  1.22624163E-001  1.27343879E-001  2.50008388E-001
Al  1.25924042E-001  -1.69560406E-003  3.75008392E-001
Al  -2.48517727E-003  1.24211917E-001  3.76929395E-001
Al  -9.86542960E-004  8.87688693E-004  5.00100653E-001
Al  1.24393681E-001  1.24587432E-001  5.00008508E-001
Al  1.23439830E-001  2.05938751E-003  6.24425524E-001
Al  -1.27807394E-003  1.25390888E-001  6.25064287E-001
Al  1.86876139E-003  -2.47861372E-003  7.49630417E-001
Al  1.25009481E-001  1.25181563E-001  7.48076747E-001
Al  1.23305372E-001  1.18082733E-003  8.75009424E-001
Al  6.72803811E-004  1.22907037E-001  8.74990611E-001
Al  -9.06528274E-004  2.49409203E-001  -1.85298836E-004
Al  1.25047168E-001  3.77434991E-001  -8.96363021E-004
Al  1.27062334E-001  2.49758373E-001  1.27445625E-001
Al  -2.44142068E-003  3.73806358E-001  1.25888350E-001
Al  -2.97973537E-004  2.52035124E-001  2.49991271E-001
Al  1.25289779E-001  3.75885601E-001  2.49747272E-001
Al  1.25332484E-001  2.50348676E-001  3.75885191E-001
Al  -2.68901374E-004  3.75019800E-001  3.75019663E-001
Al  4.71810281E-004  2.50690591E-001  5.01630611E-001
Al  1.26230562E-001  3.76688071E-001  4.99716350E-001
Al  1.24474966E-001  2.49567413E-001  6.24981890E-001
Al  8.86041515E-006  3.74714275E-001  6.26735358E-001
Al  1.16225343E-003  2.50137736E-001  7.51160598E-001
Al  1.27499138E-001  3.74877740E-001  7.48903432E-001
Al  1.27496571E-001  2.50008497E-001  8.75018706E-001
Al  -1.57070047E-004  3.72625471E-001  8.72716618E-001
Al  -4.49258109E-004  5.01752350E-001  -6.59859686E-004
Al  1.22659580E-001  6.23265052E-001  8.61521040E-005
Al  1.25019460E-001  5.01824790E-001  1.25018681E-001
Al  -2.47574282E-003  6.25259505E-001  1.27019485E-001
Al  5.23585941E-004  4.98718779E-001  2.52255979E-001
Al  1.22559025E-001  6.22544757E-001  2.49930133E-001
Al  1.27499438E-001  4.99991585E-001  3.75875506E-001
Al  -2.48661571E-003  6.22516603E-001  3.74946743E-001
Al  -1.87148219E-004  5.01618228E-001  5.02472055E-001
Al  1.25766935E-001  6.24937353E-001  5.00596590E-001
Al  1.24922975E-001  5.00037315E-001  6.25055730E-001
Al  4.08946162E-004  6.25203164E-001  6.24284397E-001
Al  -5.79386007E-004  5.00070431E-001  7.51817117E-001
Al  1.22785950E-001  6.22600783E-001  7.50229918E-001
Al  1.25549698E-001  5.00095374E-001  8.77187896E-001
Al  -3.35528275E-004  6.25024800E-001  8.74957323E-001
Al  6.41265466E-004  7.49980477E-001  -2.60081296E-004
Al  1.25024314E-001  8.77435738E-001  2.46154339E-004
Al  1.25008595E-001  7.51784523E-001  1.25871568E-001
Al  8.79630955E-005  8.75067542E-001  1.25458867E-001
Al  2.40751337E-003  7.49966141E-001  2.51703920E-001
Al  1.25189716E-001  8.73648414E-001  2.47505244E-001
Al  1.24795094E-001  7.49981778E-001  3.76784870E-001
Al  1.92679448E-005  8.75542195E-001  3.76476729E-001
Al  2.14755847E-004  7.51955416E-001  5.01710236E-001
Al  1.22500027E-001  8.74471129E-001  5.00080562E-001
Al  1.25055950E-001  7.49420764E-001  6.26916390E-001
Al  -1.91278183E-003  8.77489237E-001  6.23382608E-001
Al  -1.47692025E-004  7.50115273E-001  7.47571995E-001
Al  1.26328996E-001  8.72816042E-001  7.49661925E-001
Al  1.25384767E-001  7.52160563E-001  8.73506525E-001
Al  1.99369291E-005  8.74981530E-001  8.72645598E-001
Al  2.49922510E-001  -3.58712303E-004  -2.46905672E-003
Al  3.77189696E-001  1.24970562E-001  2.16189314E-005
Al  3.74857316E-001  2.43034525E-003  1.25057161E-001
Al  2.52471880E-001  1.22938387E-001  1.24614020E-001
Al  2.49975522E-001  7.48556190E-005  2.47994885E-001
Al  3.75113331E-001  1.24835840E-001  2.50675789E-001
Al  3.73666564E-001  9.01222605E-004  3.74382779E-001
Al  2.52496855E-001  1.23022478E-001  3.76847999E-001
Al  2.48470204E-001  2.41819426E-003  5.00018353E-001
Al  3.75136642E-001  1.24713370E-001  5.00438139E-001
Al  3.75431738E-001  -8.37173729E-006  6.25008664E-001
Al  2.49202171E-001  1.25040532E-001  6.25062100E-001
Al  2.50859148E-001  -1.83826032E-005  7.47932243E-001
Al  3.74805639E-001  1.24824602E-001  7.50428246E-001
Al  3.75398317E-001  -3.48093114E-005  8.74777387E-001
Al  2.52291718E-001  1.23887627E-001  8.74991510E-001
Al  2.50029533E-001  2.47517952E-001  1.08895223E-004
Al  3.76365385E-001  3.74540135E-001  2.15023838E-003
Al  3.75137624E-001  2.50032291E-001  1.25024406E-001
Al  2.49981352E-001  3.75559993E-001  1.24902519E-001
Al  2.50252489E-001  2.49065851E-001  2.49905878E-001
Al  3.73708755E-001  3.75174277E-001  2.50249390E-001
Al  3.74445812E-001  2.52163563E-001  3.75431848E-001
Al  2.52368516E-001  3.75439352E-001  3.77177044E-001
Al  2.48118625E-001  2.49990388E-001  4.97503416E-001
Al  3.75476878E-001  3.76425289E-001  4.98457535E-001
Al  3.75020530E-001  2.52390056E-001  6.24695067E-001
Al  2.49479819E-001  3.73058763E-001  6.26109128E-001
Al  2.52038625E-001  2.47927545E-001  7.52444959E-001
Al  3.74976461E-001  3.75165498E-001  7.50662476E-001
Al  3.77160963E-001  2.50212311E-001  8.76598551E-001
Al  2.52362046E-001  3.75259823E-001  8.72982748E-001
Al  2.50050932E-001  5.00526704E-001  -4.21057153E-004
Al  3.74960268E-001  6.24732150E-001  3.37596692E-004
Al  3.72561188E-001  5.00102598E-001  1.22504474E-001
Al  2.50018718E-001  6.24980630E-001  1.24797055E-001
Al  2.50067676E-001  5.01363950E-001  2.49334945E-001
Al  3.75018147E-001  6.22596311E-001  2.51078934E-001
Al  3.76506417E-001  4.98545278E-001  3.73796800E-001
Al  2.49726791E-001  6.24289375E-001  3.73399549E-001
Al  2.47761863E-001  5.02499792E-001  4.99837570E-001
Al  3.74644457E-001  6.25890631E-001  4.99991400E-001
Al  3.74605509E-001  4.99941327E-001  6.24977877E-001
Al  2.48288338E-001  6.23609825E-001  6.25485638E-001
Al  2.50569276E-001  5.00028894E-001  7.50406098E-001
Al  3.74932458E-001  6.23100639E-001  7.50445316E-001
Al  3.75008372E-001  5.00078070E-001  8.74982730E-001
Al  2.47556989E-001  6.27099616E-001  8.75008416E-001
Al  2.48051183E-001  7.47816878E-001  3.52224765E-004
Al  3.75067540E-001  8.75030981E-001  -2.41355682E-003
Al  3.75404692E-001  7.51593385E-001  1.25046174E-001
Al  2.48917704E-001  8.74980269E-001  1.27463259E-001
Al  2.51874059E-001  7.49991182E-001  2.50046308E-001
Al  3.74817710E-001  8.73820907E-001  2.50018127E-001
Al  3.77277108E-001  7.49958874E-001  3.76939562E-001
Al  2.49291132E-001  8.74018971E-001  3.76614464E-001
Al  2.47645950E-001  7.50019990E-001  4.97551083E-001
Al  3.73360394E-001  8.73255610E-001  4.99777930E-001
Al  3.72521518E-001  7.50018546E-001  6.25224168E-001
Al  2.52421128E-001  8.72703600E-001  6.24436724E-001
Al  2.48674180E-001  7.48320728E-001  7.50978230E-001
Al  3.77340385E-001  8.75569388E-001  7.51260687E-001
Al  3.76453400E-001  7.49133753E-001  8.74959994E-001
Al  2.47508544E-001  8.73546479E-001  8.77469137E-001
Al  5.00009092E-001  -4.49673770E-005  3.75505272E-004
Al  6.23152886E-001  1.24676389E-001  4.82615647E-005
Al  6.24968594E-001  2.07716272E-003  1.27160065E-001
Al  4.99781852E-001  1.25205087E-001  1.27499789E-001
Al  4.99371120E-001  -6.18753654E-004  2.51240781E-001
Al  6.22668684E-001  1.25031015E-001  2.50156702E-001
Al  6.25223345E-001  -2.40462825E-003  3.73735710E-001
Al  4.98310310E-001  1.22571684E-001  3.75120843E-001
Al  4.99119510E-001  2.08235647E-003  5.01923807E-001
Al  6.24991491E-001  1.27149165E-001  5.00119799E-001
Al  6.24896769E-001  1.70873135E-003  6.23660105E-001
Al  5.00024240E-001  1.25379004E-001  6.27300743E-001
Al  4.99901033E-001  1.85331638E-004  7.50069826E-001
Al  6.24875174E-001  1.25104089E-001  7.49991428E-001
Al  6.25118859E-001  2.35510115E-005  8.76706243E-001
Al  4.99233067E-001  1.22979008E-001  8.74871116E-001
Al  4.99942809E-001  2.47597282E-001  -9.20617786E-006
Al  6.22808552E-001  3.74345241E-001  3.24290752E-004
Al  6.25287618E-001  2.48126626E-001  1.24412975E-001
Al  5.02159695E-001  3.77489346E-001  1.27408597E-001
Al  5.00172463E-001  2.50143070E-001  2.49935799E-001
Al  6.25017008E-001  3.73471737E-001  2.51754575E-001
Al  6.24941844E-001  2.50018164E-001  3.74980875E-001
Al  4.99787268E-001  3.75128016E-001  3.75096301E-001
Al  4.98433135E-001  2.50062367E-001  5.00625525E-001
Al  6.27470005E-001  3.73830781E-001  4.99876421E-001
Al  6.27355940E-001  2.49930926E-001  6.25199028E-001
Al  4.98337843E-001  3.76717902E-001  6.26697931E-001
Al  5.01538297E-001  2.50017437E-001  7.50933697E-001
Al  6.26609226E-001  3.74915965E-001  7.49982409E-001
Al  6.25080954E-001  2.47599786E-001  8.74659673E-001
Al  5.00437713E-001  3.73987242E-001  8.75008765E-001
Al  5.02498538E-001  5.02406954E-001  5.78490564E-004
Al  6.24763249E-001  6.25084020E-001  -2.14928019E-004
Al  6.25405202E-001  4.99953567E-001  1.23519833E-001
Al  5.02306011E-001  6.24851460E-001  1.24803234E-001
Al  4.99027142E-001  5.01111853E-001  2.47977743E-001
Al  6.24267857E-001  6.27140520E-001  2.50661957E-001
Al  6.25216128E-001  4.99290022E-001  3.75019656E-001
Al  4.99141606E-001  6.24886889E-001  3.75019913E-001
Al  5.01344613E-001  5.02326526E-001  5.00649151E-001
Al  6.26708292E-001  6.24602051E-001  5.00603840E-001
Al  6.24751616E-001  4.99639228E-001  6.25833841E-001
Al  4.99564912E-001  6.26466468E-001  6.24483718E-001
Al  4.99231422E-001  5.02419582E-001  7.49981041E-001
Al  6.25678989E-001  6.25018648E-001  7.48431034E-001
Al  6.23747943E-001  5.00489529E-001  8.72574742E-001
Al  5.01580612E-001  6.23149398E-001  8.74573376E-001
Al  5.00026505E-001  7.47500104E-001  -2.05119670E-003
Al  6.25038790E-001  8.75273237E-001  -3.31581776E-005
Al  6.24880970E-001  7.52432205E-001  1.24851717E-001
Al  4.99963977E-001  8.74765907E-001  1.24884339E-001
Al  5.00042698E-001  7.50419164E-001  2.50057110E-001
Al  6.26289712E-001  8.74825120E-001  2.47599696E-001
Al  6.25372292E-001  7.49769821E-001  3.75957886E-001
Al  5.01506332E-001  8.77227745E-001  3.75079550E-001
Al  5.02328723E-001  7.50140798E-001  4.99981876E-001
Al  6.24834080E-001  8.72740659E-001  5.00859990E-001
Al  6.24888152E-001  7.48294147E-001  6.25018822E-001
Al  4.99981887E-001  8.72858959E-001  6.25008720E-001
Al  5.00687952E-001  7.49314688E-001  7.49814755E-001
Al  6.22680240E-001  8.76593011E-001  7.51976833E-001
Al  6.27498864E-001  7.50035457E-001  8.75347652E-001
Al  4.98429015E-001  8.76968453E-001  8.74525707E-001
Al  7.48539224E-001  7.88501564E-005  2.49914756E-003
Al  8.75683312E-001  1.24910734E-001  8.78582233E-004
Al  8.74771611E-001  1.58364794E-003  1.25984297E-001
Al  7.49906982E-001  1.26163000E-001  1.24750510E-001
Al  7.49943174E-001  -1.43781528E-003  2.50018445E-001
Al  8.75175718E-001  1.27435549E-001  2.49776551E-001
Al  8.77389167E-001  -1.15367399E-003  3.73939518E-001
Al  7.47783844E-001  1.22626993E-001  3.77096404E-001
Al  7.52251565E-001  1.37269049E-003  4.98109434E-001
Al  8.73684245E-001  1.25103138E-001  4.98209163E-001
Al  8.77392015E-001  6.46783396E-005  6.24981503E-001
Al  7.48369070E-001  1.25549947E-001  6.23644928E-001
Al  7.50091729E-001  -3.10286928E-004  7.47520439E-001
Al  8.75186655E-001  1.25936014E-001  7.51422971E-001
Al  8.75220031E-001  -2.01110633E-005  8.75051519E-001
Al  7.50008396E-001  1.23047063E-001  8.72545097E-001
Al  7.49468195E-001  2.50134599E-001  -2.28972241E-003
Al  8.74179926E-001  3.75590514E-001  -4.07648970E-004
Al  8.74863194E-001  2.47554265E-001  1.24119743E-001
Al  7.49768619E-001  3.75373588E-001  1.23527759E-001
Al  7.49933237E-001  2.52441094E-001  2.51957100E-001
Al  8.77231577E-001  3.73063229E-001  2.49210882E-001
Al  8.72564318E-001  2.47522625E-001  3.72738722E-001
Al  7.47926695E-001  3.74991108E-001  3.74613373E-001
Al  7.47810841E-001  2.50685804E-001  5.01174292E-001
Al  8.72826466E-001  3.77213804E-001  4.98274995E-001
Al  8.75405005E-001  2.50615987E-001  6.26800185E-001
Al  7.49990304E-001  3.77210835E-001  6.26338880E-001
Al  7.49197970E-001  2.49873162E-001  7.48929331E-001
Al  8.74891843E-001  3.73702893E-001  7.48473755E-001
Al  8.73259658E-001  2.47502180E-001  8.75230948E-001
Al  7.49881799E-001  3.75174730E-001  8.75018703E-001
Al  7.48292759E-001  5.00512171E-001  1.51034081E-004
Al  8.74982280E-001  6.24777893E-001  -9.71495412E-004
Al  8.77292778E-001  5.01392594E-001  1.23538787E-001
Al  7.49967778E-001  6.25052283E-001  1.27492741E-001
Al  7.50546893E-001  5.02390862E-001  2.49425413E-001
Al  8.77426127E-001  6.24937804E-001  2.49966238E-001
Al  8.75017945E-001  4.99138731E-001  3.72500172E-001
Al  7.50848791E-001  6.23255755E-001  3.77103947E-001
Al  7.49810080E-001  5.00769278E-001  5.00869829E-001
Al  8.75032981E-001  6.25313855E-001  4.98492625E-001
Al  8.75616302E-001  4.99563062E-001  6.24043633E-001
Al  7.50023680E-001  6.25187827E-001  6.22935585E-001
Al  7.49961791E-001  4.98869028E-001  7.50024069E-001
Al  8.74691924E-001  6.25397584E-001  7.50041737E-001
Al  8.74917185E-001  4.98705173E-001  8.76045740E-001
Al  7.49624415E-001  6.24185945E-001  8.77494456E-001
Al  7.50255825E-001  7.49958687E-001  -1.68144749E-004
Al  8.75028658E-001  8.75483187E-001  -8.80983766E-006
Al  8.72535880E-001  7.50116203E-001  1.25252078E-001
Al  7.50078663E-001  8.74912159E-001  1.26029345E-001
Al  7.49237143E-001  7.49896193E-001  2.50018109E-001
Al  8.74638447E-001  8.74933107E-001  2.49675889E-001
Al  8.72858513E-001  7.47899347E-001  3.75022661E-001
Al  7.52487496E-001  8.75328307E-001  3.75122353E-001
Al  7.48379473E-001  7.50322225E-001  5.00982563E-001
Al  8.75445959E-001  8.76532931E-001  4.99885700E-001
Al  8.77305379E-001  7.47621180E-001  6.24872981E-001
Al  7.51995929E-001  8.75220828E-001  6.24285435E-001
Al  7.51219478E-001  7.52460203E-001  7.50025674E-001
Al  8.76595010E-001  8.74965300E-001  7.48074591E-001
Al  8.73366337E-001  7.50042401E-001  8.73583339E-001
Al  7.52493631E-001  8.73238424E-001  8.74642181E-001
K_POINTS automatic
2 2 2 1 1 1
