&CONTROL
restart_mode = 'from_scratch',
calculation = 'scf',
outdir = '/gpfs/bb/bxp912/scratch',
pseudo_dir = '/gpfs/bb/bxp912/pseudopotentials',
prefix = '3.00000000E-001',
etot_conv_thr = 1.00000000E-007,
forc_conv_thr = 1.00000000E-007,
nstep = 200,
tprnfor = .true.,
tstress = .true.,
disk_io = 'low',
/
&SYSTEM
ibrav = 14,
celldm(1) = 3.05001797E+001,
celldm(2) = 1.00000000E+000,
celldm(3) = 1.00000000E+000,
celldm(4) = 0.00000000E+000,
celldm(5) = 0.00000000E+000,
celldm(6) = 0.00000000E+000,
nat = 256,
ntyp = 1,
ecutwfc = 35,
ecutrho = 208,
occupations = 'smearing',
smearing = 'mv',
degauss = 5.00000007E-002,
/
&ELECTRONS
diagonalization = 'david',
mixing_mode = plain,
mixing_beta = 6.99999988E-001,
conv_thr = 1.00000000E-007,
/
&IONS
ion_dynamics = 'bfgs',
/
&CELL
cell_dynamics = 'bfgs',
press = 0.00000000E+000,
cell_factor = 2.00000000E+000,
/
ATOMIC_SPECIES
Al  2.69815390E+001  Al.pbe-n-kjpaw_psl.0.1.UPF
ATOMIC_POSITIONS crystal
Al  3.82661363E-004  -1.27274286E-003  3.07525242E-004
Al  1.25126631E-001  1.27438951E-001  -1.03106344E-004
Al  1.24907770E-001  2.02412159E-004  1.25534284E-001
Al  9.90805967E-005  1.25432533E-001  1.24243395E-001
Al  -5.27099887E-004  2.08359840E-003  2.52497919E-001
Al  1.25020304E-001  1.24982780E-001  2.47751107E-001
Al  1.27487451E-001  -1.16277547E-003  3.75514042E-001
Al  -2.49701109E-003  1.23958014E-001  3.72805443E-001
Al  2.43846348E-003  2.49499671E-003  5.00362168E-001
Al  1.23201610E-001  1.24513205E-001  5.00304054E-001
Al  1.23866233E-001  1.17248746E-003  6.25383969E-001
Al  1.00703712E-004  1.25283740E-001  6.25047335E-001
Al  -2.14237172E-003  -1.66366837E-003  7.47755455E-001
Al  1.25019019E-001  1.26573574E-001  7.50019742E-001
Al  1.24690979E-001  8.37048667E-006  8.73459319E-001
Al  -1.83370839E-005  1.25199159E-001  8.76260813E-001
Al  -1.38614815E-003  2.50812976E-001  -4.47844773E-004
Al  1.24874224E-001  3.74910749E-001  4.92707067E-005
Al  1.26976552E-001  2.47847148E-001  1.23335803E-001
Al  -9.48684643E-004  3.73796879E-001  1.25118890E-001
Al  -1.40324407E-003  2.48901031E-001  2.48116386E-001
Al  1.25019809E-001  3.72519771E-001  2.49949601E-001
Al  1.24861847E-001  2.50489840E-001  3.74817073E-001
Al  9.46516896E-006  3.75910643E-001  3.74990568E-001
Al  -1.65870938E-004  2.52177638E-001  4.99766835E-001
Al  1.24991045E-001  3.72739449E-001  4.99977887E-001
Al  1.24939401E-001  2.51875936E-001  6.24582531E-001
Al  2.05878309E-004  3.74695875E-001  6.27399906E-001
Al  2.78544719E-005  2.50148303E-001  7.47955301E-001
Al  1.26460636E-001  3.73357076E-001  7.51415383E-001
Al  1.25018730E-001  2.52307158E-001  8.75019314E-001
Al  7.07842670E-004  3.73257508E-001  8.73841086E-001
Al  -1.83144290E-005  5.00009022E-001  2.49890109E-003
Al  1.26018450E-001  6.26450593E-001  1.14466632E-003
Al  1.25461797E-001  5.01253550E-001  1.24979834E-001
Al  -3.31074840E-004  6.25252267E-001  1.25559435E-001
Al  1.81051968E-004  4.99979217E-001  2.51706362E-001
Al  1.24960691E-001  6.24973978E-001  2.47710708E-001
Al  1.27497035E-001  4.99671017E-001  3.75077620E-001
Al  1.28854063E-003  6.23464673E-001  3.74532344E-001
Al  1.40461652E-003  5.00074947E-001  4.97551793E-001
Al  1.27381757E-001  6.25008923E-001  5.02169572E-001
Al  1.23536886E-001  5.00499040E-001  6.24937885E-001
Al  9.74010850E-004  6.25705015E-001  6.22554894E-001
Al  -2.64925878E-005  4.98015035E-001  7.49345307E-001
Al  1.25371643E-001  6.26604862E-001  7.52258310E-001
Al  1.24973901E-001  4.99981121E-001  8.75645869E-001
Al  8.99283754E-006  6.23997169E-001  8.74964333E-001
Al  -2.25026857E-003  7.49251757E-001  2.48990852E-003
Al  1.25530884E-001  8.74444561E-001  1.61638227E-003
Al  1.24981734E-001  7.50124360E-001  1.27398203E-001
Al  2.43001974E-003  8.77000902E-001  1.22559663E-001
Al  -2.10084906E-003  7.47525948E-001  2.52127449E-001
Al  1.24322374E-001  8.72861030E-001  2.49129842E-001
Al  1.24840300E-001  7.52386932E-001  3.74813142E-001
Al  -1.81074384E-005  8.75096026E-001  3.75045169E-001
Al  -7.71939797E-005  7.49630258E-001  5.00033466E-001
Al  1.26167102E-001  8.75373229E-001  4.97943649E-001
Al  1.25502320E-001  7.50159257E-001  6.24683330E-001
Al  -5.34892047E-004  8.77312294E-001  6.26951638E-001
Al  7.10004404E-004  7.49991259E-001  7.47673532E-001
Al  1.27487310E-001  8.75414792E-001  7.49310585E-001
Al  1.24991419E-001  7.51596345E-001  8.75182724E-001
Al  -2.45483857E-003  8.75009472E-001  8.74924467E-001
Al  2.49753949E-001  2.38221030E-003  5.74512414E-004
Al  3.73945008E-001  1.23620841E-001  -4.92570864E-004
Al  3.75265702E-001  2.41871092E-003  1.27057673E-001
Al  2.47572839E-001  1.25260032E-001  1.25785112E-001
Al  2.48349559E-001  3.36095426E-004  2.50527188E-001
Al  3.74466398E-001  1.25207404E-001  2.50023740E-001
Al  3.75018110E-001  -1.89132717E-003  3.75140621E-001
Al  2.47748002E-001  1.24801460E-001  3.74321389E-001
Al  2.50042664E-001  5.21403493E-004  4.98860755E-001
Al  3.73966766E-001  1.24847880E-001  4.97846399E-001
Al  3.75442464E-001  -3.90766424E-004  6.27285387E-001
Al  2.50128906E-001  1.24707500E-001  6.24893456E-001
Al  2.51368702E-001  2.08025930E-004  7.49980990E-001
Al  3.73506569E-001  1.25693493E-001  7.49697310E-001
Al  3.77290479E-001  -5.27538272E-004  8.75433019E-001
Al  2.47505487E-001  1.22560477E-001  8.72506968E-001
Al  2.52436728E-001  2.50008577E-001  -2.31326926E-003
Al  3.75047732E-001  3.75283309E-001  -1.41909571E-003
Al  3.75246802E-001  2.51213692E-001  1.25652228E-001
Al  2.50008958E-001  3.74810083E-001  1.22639539E-001
Al  2.50198855E-001  2.52193469E-001  2.52492127E-001
Al  3.74991527E-001  3.75080978E-001  2.48669563E-001
Al  3.74465542E-001  2.50018110E-001  3.76132950E-001
Al  2.51263953E-001  3.73858719E-001  3.74448939E-001
Al  2.50568934E-001  2.51657478E-001  5.01640286E-001
Al  3.76449302E-001  3.72995964E-001  5.02208223E-001
Al  3.75061657E-001  2.49833331E-001  6.27296930E-001
Al  2.47646808E-001  3.77262672E-001  6.23646556E-001
Al  2.49991255E-001  2.51120941E-001  7.52434433E-001
Al  3.74979368E-001  3.74981852E-001  7.51607758E-001
Al  3.72685564E-001  2.52308952E-001  8.75547466E-001
Al  2.49893952E-001  3.76087887E-001  8.74478966E-001
Al  2.50576288E-001  5.00196272E-001  -4.75338913E-005
Al  3.73634786E-001  6.23298633E-001  8.18588080E-005
Al  3.75437682E-001  5.00110057E-001  1.24447246E-001
Al  2.50071934E-001  6.24972093E-001  1.25029630E-001
Al  2.47705517E-001  5.00442114E-001  2.48927160E-001
Al  3.74871706E-001  6.22531332E-001  2.48083220E-001
Al  3.74982912E-001  5.00251133E-001  3.75056596E-001
Al  2.47606298E-001  6.25139644E-001  3.77371715E-001
Al  2.52497752E-001  4.97709838E-001  4.99621497E-001
Al  3.75520199E-001  6.25030020E-001  5.00280409E-001
Al  3.76858203E-001  5.00208493E-001  6.24990559E-001
Al  2.50688198E-001  6.25461096E-001  6.26451266E-001
Al  2.48105536E-001  5.02258097E-001  7.50087428E-001
Al  3.74905706E-001  6.27427986E-001  7.51501997E-001
Al  3.74982308E-001  4.99959486E-001  8.76649836E-001
Al  2.52426818E-001  6.25027583E-001  8.73823786E-001
Al  2.52264173E-001  7.50978902E-001  -7.49424986E-004
Al  3.74981626E-001  8.75019563E-001  7.08549823E-004
Al  3.73502688E-001  7.49339260E-001  1.25324219E-001
Al  2.51662335E-001  8.74761997E-001  1.27168247E-001
Al  2.49142026E-001  7.49661614E-001  2.51407482E-001
Al  3.75163069E-001  8.72500067E-001  2.47837310E-001
Al  3.72994229E-001  7.50081599E-001  3.72515665E-001
Al  2.49785990E-001  8.76819071E-001  3.75077214E-001
Al  2.47679354E-001  7.51315813E-001  5.00455865E-001
Al  3.76730380E-001  8.72898653E-001  5.02322536E-001
Al  3.75429442E-001  7.48720667E-001  6.26708740E-001
Al  2.47901375E-001  8.77332557E-001  6.25245765E-001
Al  2.48854923E-001  7.52460280E-001  7.49872866E-001
Al  3.73867328E-001  8.72560880E-001  7.51551654E-001
Al  3.75231965E-001  7.50009542E-001  8.74681814E-001
Al  2.47792536E-001  8.75018846E-001  8.75070597E-001
Al  5.01628744E-001  -1.81392424E-005  -2.40259224E-005
Al  6.22638939E-001  1.27314145E-001  -1.77201236E-004
Al  6.22550818E-001  1.90907975E-005  1.26319584E-001
Al  5.01305750E-001  1.25020207E-001  1.24968521E-001
Al  4.99795130E-001  -6.51863244E-004  2.50121881E-001
Al  6.24893193E-001  1.24335690E-001  2.51904319E-001
Al  6.24990729E-001  -1.25401642E-003  3.76641680E-001
Al  5.00008376E-001  1.25052303E-001  3.74575031E-001
Al  5.00104683E-001  6.84198282E-004  4.99507867E-001
Al  6.25121096E-001  1.23621326E-001  5.00855423E-001
Al  6.26907182E-001  -1.77162111E-003  6.25182897E-001
Al  4.99976072E-001  1.25938018E-001  6.25442145E-001
Al  4.99615091E-001  -1.72907788E-003  7.50019506E-001
Al  6.27177355E-001  1.27495131E-001  7.50625489E-001
Al  6.25547876E-001  2.40488064E-004  8.75040109E-001
Al  4.99125076E-001  1.24777260E-001  8.75365880E-001
Al  5.00045052E-001  2.49931546E-001  1.80073457E-003
Al  6.22683632E-001  3.75008856E-001  -1.71530632E-004
Al  6.26021218E-001  2.49890457E-001  1.27330230E-001
Al  4.97555420E-001  3.74555011E-001  1.25020741E-001
Al  4.99769705E-001  2.50028049E-001  2.49877798E-001
Al  6.25121667E-001  3.74933273E-001  2.47773844E-001
Al  6.24742065E-001  2.50025217E-001  3.74915739E-001
Al  5.01592569E-001  3.74304173E-001  3.77128128E-001
Al  4.99978211E-001  2.50018864E-001  5.00104236E-001
Al  6.25626333E-001  3.74943645E-001  4.98202423E-001
Al  6.22770606E-001  2.50460237E-001  6.25256904E-001
Al  5.00058477E-001  3.76434221E-001  6.22553422E-001
Al  5.00019344E-001  2.51546347E-001  7.49473080E-001
Al  6.24076575E-001  3.74890549E-001  7.49099708E-001
Al  6.27491095E-001  2.50540464E-001  8.75653268E-001
Al  4.99626211E-001  3.74991044E-001  8.74782134E-001
Al  4.99963091E-001  5.00034644E-001  -4.59636942E-004
Al  6.25967174E-001  6.25679817E-001  2.38442616E-003
Al  6.22589020E-001  4.99980710E-001  1.27439416E-001
Al  5.00135538E-001  6.24731596E-001  1.25344309E-001
Al  4.99957701E-001  4.98984755E-001  2.47953659E-001
Al  6.22902155E-001  6.25156106E-001  2.51523110E-001
Al  6.25143270E-001  5.01220242E-001  3.72585256E-001
Al  4.99867177E-001  6.25092951E-001  3.72841603E-001
Al  5.00018111E-001  5.00018126E-001  5.00153971E-001
Al  6.22502560E-001  6.22501169E-001  4.97558518E-001
Al  6.22965491E-001  5.02429867E-001  6.24667183E-001
Al  4.99816950E-001  6.22629314E-001  6.27035330E-001
Al  4.99445763E-001  5.00116100E-001  7.49328400E-001
Al  6.25237467E-001  6.22815768E-001  7.48097260E-001
Al  6.25008646E-001  5.00070508E-001  8.74235514E-001
Al  4.98218243E-001  6.25461840E-001  8.72685524E-001
Al  4.97657882E-001  7.49932660E-001  4.95443425E-004
Al  6.25846773E-001  8.77084034E-001  2.35574576E-003
Al  6.23421462E-001  7.50047570E-001  1.25349096E-001
Al  5.01214188E-001  8.77465852E-001  1.27338427E-001
Al  5.01524418E-001  7.47861587E-001  2.50519140E-001
Al  6.26201006E-001  8.74898152E-001  2.47828937E-001
Al  6.25056104E-001  7.49991144E-001  3.73820198E-001
Al  4.99900050E-001  8.77184583E-001  3.74346291E-001
Al  4.99942887E-001  7.51547870E-001  4.99068867E-001
Al  6.27286622E-001  8.76324724E-001  5.00061654E-001
Al  6.26899707E-001  7.50145017E-001  6.25126314E-001
Al  4.99055163E-001  8.74687874E-001  6.27324800E-001
Al  5.00123983E-001  7.49530275E-001  7.49880645E-001
Al  6.24981613E-001  8.76411957E-001  7.51503859E-001
Al  6.24847162E-001  7.49991092E-001  8.74574560E-001
Al  4.99062111E-001  8.73174585E-001  8.74789583E-001
Al  7.49688743E-001  5.07129692E-004  1.81530069E-005
Al  8.75024961E-001  1.22700447E-001  6.82944434E-004
Al  8.75229930E-001  -2.09209163E-003  1.24212848E-001
Al  7.52230907E-001  1.22501485E-001  1.25395797E-001
Al  7.49353102E-001  1.49988735E-003  2.50281082E-001
Al  8.73780342E-001  1.27240123E-001  2.49970566E-001
Al  8.76986996E-001  3.41123482E-005  3.74530962E-001
Al  7.50870727E-001  1.25008516E-001  3.74679514E-001
Al  7.52321434E-001  -2.48993284E-005  4.99789729E-001
Al  8.74980972E-001  1.24740111E-001  5.00781775E-001
Al  8.74991555E-001  -2.18926510E-003  6.22512477E-001
Al  7.49991594E-001  1.25260719E-001  6.22963266E-001
Al  7.49924627E-001  3.72400524E-005  7.51889045E-001
Al  8.75641693E-001  1.24990959E-001  7.50112574E-001
Al  8.75113630E-001  2.41993232E-003  8.74693056E-001
Al  7.52449992E-001  1.25343375E-001  8.72945424E-001
Al  7.50106439E-001  2.47584349E-001  -9.52556340E-005
Al  8.72500525E-001  3.74828888E-001  -4.10182493E-004
Al  8.75448703E-001  2.50008370E-001  1.22743556E-001
Al  7.51522599E-001  3.75368361E-001  1.23263754E-001
Al  7.48635812E-001  2.50348165E-001  2.50018492E-001
Al  8.77258084E-001  3.75278487E-001  2.49516954E-001
Al  8.74912992E-001  2.50008430E-001  3.77479572E-001
Al  7.48800357E-001  3.72502222E-001  3.74786052E-001
Al  7.50062780E-001  2.50609229E-001  4.97692711E-001
Al  8.76953431E-001  3.75009776E-001  5.01934215E-001
Al  8.75032420E-001  2.50049029E-001  6.25035908E-001
Al  7.49981522E-001  3.73092613E-001  6.22500110E-001
Al  7.50145855E-001  2.52343371E-001  7.52352300E-001
Al  8.74205325E-001  3.77394665E-001  7.50081544E-001
Al  8.77334667E-001  2.47608334E-001  8.75791326E-001
Al  7.50117066E-001  3.72515547E-001  8.74953577E-001
Al  7.50066841E-001  4.99093593E-001  -4.56367059E-004
Al  8.75222389E-001  6.22532994E-001  1.82538382E-005
Al  8.74991108E-001  5.00361921E-001  1.26141855E-001
Al  7.50951299E-001  6.23311294E-001  1.24892347E-001
Al  7.48794326E-001  4.97500126E-001  2.50573596E-001
Al  8.75344906E-001  6.25036746E-001  2.50621792E-001
Al  8.73409814E-001  5.00018178E-001  3.74979772E-001
Al  7.50155501E-001  6.25923421E-001  3.73757697E-001
Al  7.49373034E-001  4.97552781E-001  5.00236710E-001
Al  8.75018126E-001  6.22510608E-001  5.01059109E-001
Al  8.76090278E-001  4.99977290E-001  6.23509463E-001
Al  7.48643114E-001  6.24229129E-001  6.25024767E-001
Al  7.47784857E-001  5.00018396E-001  7.49632565E-001
Al  8.75094730E-001  6.27495890E-001  7.49982661E-001
Al  8.75870936E-001  5.02450896E-001  8.75134801E-001
Al  7.52211246E-001  6.22562560E-001  8.75552020E-001
Al  7.48659714E-001  7.48156826E-001  -2.05681148E-003
Al  8.74991354E-001  8.75969949E-001  -1.70422512E-003
Al  8.75430916E-001  7.50858850E-001  1.24792564E-001
Al  7.48224578E-001  8.75048078E-001  1.24849977E-001
Al  7.50084248E-001  7.47986452E-001  2.51344493E-001
Al  8.74876864E-001  8.74981734E-001  2.52409909E-001
Al  8.74696195E-001  7.49868530E-001  3.75942752E-001
Al  7.52478184E-001  8.75018434E-001  3.75018737E-001
Al  7.52109385E-001  7.48231033E-001  4.98179155E-001
Al  8.72750818E-001  8.75301241E-001  5.02296582E-001
Al  8.76639657E-001  7.50008768E-001  6.22506916E-001
Al  7.52331500E-001  8.74551817E-001  6.23484922E-001
Al  7.49030432E-001  7.50132747E-001  7.49962314E-001
Al  8.73301214E-001  8.73662610E-001  7.48308836E-001
Al  8.76190757E-001  7.49963109E-001  8.74854980E-001
Al  7.47828376E-001  8.72594801E-001  8.76058909E-001
K_POINTS automatic
2 2 2 1 1 1
