&CONTROL
restart_mode = 'from_scratch',
calculation = 'scf',
outdir = '/gpfs/bb/bxp912/scratch',
pseudo_dir = '/gpfs/bb/bxp912/pseudopotentials',
prefix = '3.00000000E-001',
etot_conv_thr = 1.00000000E-007,
forc_conv_thr = 1.00000000E-007,
nstep = 200,
tprnfor = .true.,
tstress = .true.,
disk_io = 'low',
/
&SYSTEM
ibrav = 14,
celldm(1) = 3.05001797E+001,
celldm(2) = 1.00000000E+000,
celldm(3) = 1.00000000E+000,
celldm(4) = 0.00000000E+000,
celldm(5) = 0.00000000E+000,
celldm(6) = 0.00000000E+000,
nat = 256,
ntyp = 1,
ecutwfc = 35,
ecutrho = 208,
occupations = 'smearing',
smearing = 'mv',
degauss = 5.00000007E-002,
/
&ELECTRONS
diagonalization = 'david',
mixing_mode = plain,
mixing_beta = 6.99999988E-001,
conv_thr = 1.00000000E-007,
/
&IONS
ion_dynamics = 'bfgs',
/
&CELL
cell_dynamics = 'bfgs',
press = 0.00000000E+000,
cell_factor = 2.00000000E+000,
/
ATOMIC_SPECIES
Al  2.69815390E+001  Al.pbe-n-kjpaw_psl.0.1.UPF
ATOMIC_POSITIONS crystal
Al  -1.27985400E-003  1.85649406E-005  -3.70225154E-004
Al  1.26939534E-001  1.23985226E-001  -1.30037526E-003
Al  1.25809586E-001  2.47403754E-003  1.23855270E-001
Al  7.32259816E-004  1.27455333E-001  1.27201661E-001
Al  1.97562028E-003  1.01252712E-003  2.50427598E-001
Al  1.22627862E-001  1.25520227E-001  2.50019279E-001
Al  1.24641994E-001  4.97915867E-005  3.75464194E-001
Al  -3.31429545E-004  1.23179440E-001  3.73143644E-001
Al  -9.43617975E-005  1.87192687E-005  5.00018940E-001
Al  1.27233085E-001  1.24947937E-001  4.98490503E-001
Al  1.22514147E-001  7.89837366E-004  6.23671577E-001
Al  -9.51884822E-006  1.24932251E-001  6.26560472E-001
Al  -2.48679173E-003  -1.43417415E-004  7.49666321E-001
Al  1.24301784E-001  1.24700288E-001  7.50038146E-001
Al  1.25242020E-001  2.06655701E-003  8.74991456E-001
Al  -1.29476246E-003  1.24926274E-001  8.76367845E-001
Al  2.23081681E-004  2.51985549E-001  1.87825794E-005
Al  1.24980213E-001  3.74958613E-001  -3.54357702E-005
Al  1.25022640E-001  2.47611295E-001  1.25008372E-001
Al  1.16556543E-003  3.75454768E-001  1.24672867E-001
Al  1.77071524E-003  2.49516507E-001  2.50711092E-001
Al  1.24981136E-001  3.72866448E-001  2.51587639E-001
Al  1.24628234E-001  2.50049826E-001  3.74702401E-001
Al  1.06690283E-004  3.75096002E-001  3.74867973E-001
Al  2.03800425E-004  2.47775283E-001  4.99981078E-001
Al  1.27498696E-001  3.74241283E-001  5.00182602E-001
Al  1.25025926E-001  2.52485719E-001  6.25977114E-001
Al  2.36438974E-003  3.75250728E-001  6.25773845E-001
Al  -3.70683203E-005  2.49606253E-001  7.49971583E-001
Al  1.27402179E-001  3.75019708E-001  7.49991125E-001
Al  1.24937710E-001  2.47993267E-001  8.72548475E-001
Al  2.21822633E-003  3.76096617E-001  8.77395557E-001
Al  1.47251405E-003  5.00239955E-001  -1.28100378E-004
Al  1.23996568E-001  6.25204691E-001  3.76010788E-004
Al  1.25086919E-001  4.99784252E-001  1.23852359E-001
Al  -4.82364674E-004  6.25057939E-001  1.22704176E-001
Al  2.42979036E-003  4.98815437E-001  2.51599149E-001
Al  1.25046179E-001  6.25785124E-001  2.50878485E-001
Al  1.25747500E-001  4.99867211E-001  3.76351805E-001
Al  7.34364288E-005  6.23494018E-001  3.76731363E-001
Al  4.04741598E-004  5.00034999E-001  5.00127483E-001
Al  1.24717697E-001  6.24991471E-001  5.00503949E-001
Al  1.24991020E-001  5.02336917E-001  6.22722621E-001
Al  7.62790285E-004  6.25082193E-001  6.23838988E-001
Al  -9.49604820E-004  5.00043398E-001  7.50009611E-001
Al  1.25050065E-001  6.26063901E-001  7.47744768E-001
Al  1.26379999E-001  5.00138664E-001  8.77359100E-001
Al  -2.41621092E-003  6.22505216E-001  8.75031833E-001
Al  -2.70871098E-005  7.49565352E-001  1.04295763E-004
Al  1.26318879E-001  8.74794261E-001  5.32738404E-004
Al  1.25531178E-001  7.52272980E-001  1.24895827E-001
Al  1.64112171E-003  8.72840281E-001  1.24331311E-001
Al  2.60827342E-005  7.50269258E-001  2.49146265E-001
Al  1.25087280E-001  8.75151962E-001  2.52058092E-001
Al  1.24980741E-001  7.49427302E-001  3.74777990E-001
Al  4.57398247E-004  8.74783824E-001  3.74654885E-001
Al  2.48471218E-003  7.49991614E-001  4.99991627E-001
Al  1.24576814E-001  8.76096542E-001  4.99973439E-001
Al  1.24419900E-001  7.48864336E-001  6.25968124E-001
Al  1.07751744E-003  8.76124582E-001  6.24935431E-001
Al  -1.23791631E-004  7.51247808E-001  7.51218623E-001
Al  1.26968391E-001  8.74462751E-001  7.49946536E-001
Al  1.27300145E-001  7.50148752E-001  8.75161167E-001
Al  4.14963225E-004  8.77047604E-001  8.74980301E-001
Al  2.52483230E-001  -4.08057064E-004  1.65234047E-004
Al  3.75019293E-001  1.25106371E-001  2.14484892E-005
Al  3.72758163E-001  1.80254642E-003  1.23645666E-001
Al  2.49981882E-001  1.24965223E-001  1.26257266E-001
Al  2.50044102E-001  -2.45968316E-003  2.50155613E-001
Al  3.74847287E-001  1.26888448E-001  2.47749827E-001
Al  3.76802957E-001  -2.03663933E-003  3.75090381E-001
Al  2.47733263E-001  1.23169025E-001  3.75021099E-001
Al  2.49212217E-001  2.47306715E-003  4.99991533E-001
Al  3.75896700E-001  1.25305849E-001  5.00069875E-001
Al  3.75152992E-001  -1.85616564E-003  6.25018160E-001
Al  2.49981408E-001  1.26936110E-001  6.25150543E-001
Al  2.49981214E-001  7.27615623E-004  7.49978284E-001
Al  3.75023160E-001  1.25639971E-001  7.49166904E-001
Al  3.73128919E-001  -2.44227082E-003  8.76139609E-001
Al  2.51467752E-001  1.26692561E-001  8.75317308E-001
Al  2.47892951E-001  2.50019480E-001  -4.01797213E-004
Al  3.73148238E-001  3.75216908E-001  9.94316869E-005
Al  3.74971054E-001  2.49306629E-001  1.23025104E-001
Al  2.50168475E-001  3.75392506E-001  1.22911041E-001
Al  2.50170876E-001  2.52312657E-001  2.49969472E-001
Al  3.74991620E-001  3.75008821E-001  2.50164817E-001
Al  3.75439682E-001  2.50022815E-001  3.74892257E-001
Al  2.49041763E-001  3.76618382E-001  3.74229811E-001
Al  2.48759586E-001  2.49937628E-001  5.00055509E-001
Al  3.76243352E-001  3.77223014E-001  5.00666488E-001
Al  3.75512211E-001  2.50538695E-001  6.22672632E-001
Al  2.49937493E-001  3.75073126E-001  6.25333967E-001
Al  2.50947392E-001  2.50939623E-001  7.50009450E-001
Al  3.75581464E-001  3.75480355E-001  7.48824612E-001
Al  3.77290237E-001  2.47590216E-001  8.73472946E-001
Al  2.51150091E-001  3.76945385E-001  8.72892080E-001
Al  2.49981239E-001  5.00856347E-001  8.60561160E-006
Al  3.74803640E-001  6.22829203E-001  -1.83446274E-005
Al  3.77497760E-001  4.99777636E-001  1.24893774E-001
Al  2.47827231E-001  6.23856680E-001  1.24922502E-001
Al  2.49972358E-001  5.00211085E-001  2.50009069E-001
Al  3.74991225E-001  6.25437365E-001  2.50080281E-001
Al  3.73178160E-001  5.02496807E-001  3.75071028E-001
Al  2.47716070E-001  6.25028976E-001  3.73564468E-001
Al  2.49081508E-001  5.02226658E-001  5.02222034E-001
Al  3.75439108E-001  6.25242169E-001  4.99388699E-001
Al  3.77038026E-001  5.00008382E-001  6.23568732E-001
Al  2.50127975E-001  6.23981134E-001  6.25135499E-001
Al  2.48147574E-001  4.99166577E-001  7.50130644E-001
Al  3.77310571E-001  6.27442453E-001  7.52133412E-001
Al  3.74981646E-001  4.99859353E-001  8.77439166E-001
Al  2.48366387E-001  6.23234049E-001  8.76124500E-001
Al  2.47531618E-001  7.50047428E-001  8.78952297E-006
Al  3.76025038E-001  8.74483538E-001  1.34429443E-004
Al  3.75334856E-001  7.51347663E-001  1.25358515E-001
Al  2.50071910E-001  8.74969660E-001  1.22566562E-001
Al  2.49277367E-001  7.50377522E-001  2.50056419E-001
Al  3.74850111E-001  8.77057131E-001  2.50971354E-001
Al  3.73355258E-001  7.48123161E-001  3.74039157E-001
Al  2.50043603E-001  8.76439920E-001  3.75780634E-001
Al  2.52467012E-001  7.47653431E-001  4.99088274E-001
Al  3.77398900E-001  8.74267652E-001  4.97862680E-001
Al  3.77445823E-001  7.49619895E-001  6.25008588E-001
Al  2.50008488E-001  8.76547756E-001  6.23288219E-001
Al  2.49965065E-001  7.51641200E-001  7.50032595E-001
Al  3.73177477E-001  8.74217622E-001  7.49813051E-001
Al  3.74216421E-001  7.50802985E-001  8.77497615E-001
Al  2.49859263E-001  8.75221316E-001  8.74488622E-001
Al  4.99836665E-001  7.34491731E-004  9.30897625E-006
Al  6.25046672E-001  1.22535828E-001  -2.98531983E-004
Al  6.25047158E-001  4.71588374E-004  1.23753111E-001
Al  4.99749441E-001  1.25008952E-001  1.22575504E-001
Al  4.99698056E-001  -2.04780783E-003  2.50117257E-001
Al  6.27489253E-001  1.24859840E-001  2.47642771E-001
Al  6.22518846E-001  2.02858873E-005  3.75018164E-001
Al  5.02342611E-001  1.25700465E-001  3.76757237E-001
Al  4.99866869E-001  4.11800675E-004  5.00008909E-001
Al  6.22532611E-001  1.22500457E-001  4.97645064E-001
Al  6.24102766E-001  -1.47772011E-004  6.27490199E-001
Al  5.01984292E-001  1.24531383E-001  6.24645987E-001
Al  4.99863980E-001  -3.46071080E-004  7.50018309E-001
Al  6.24813229E-001  1.25142928E-001  7.49981744E-001
Al  6.24981861E-001  -2.31295246E-003  8.74981833E-001
Al  5.00008500E-001  1.25760928E-001  8.72626320E-001
Al  4.99793732E-001  2.50304772E-001  2.45427063E-003
Al  6.24961319E-001  3.75029015E-001  -1.15788292E-003
Al  6.24967316E-001  2.48070992E-001  1.27378577E-001
Al  4.98136023E-001  3.75972424E-001  1.25093030E-001
Al  4.99907266E-001  2.47749148E-001  2.50025404E-001
Al  6.24809903E-001  3.72518941E-001  2.49898207E-001
Al  6.25043593E-001  2.49630999E-001  3.74947823E-001
Al  4.98125686E-001  3.74957597E-001  3.74650754E-001
Al  4.99477176E-001  2.47571288E-001  5.00018576E-001
Al  6.24918534E-001  3.74991555E-001  4.99857753E-001
Al  6.25008442E-001  2.48413086E-001  6.26132728E-001
Al  4.99991194E-001  3.75018110E-001  6.24990947E-001
Al  4.99464384E-001  2.50009464E-001  7.50145851E-001
Al  6.24024018E-001  3.75067920E-001  7.51110813E-001
Al  6.25061253E-001  2.51967585E-001  8.75019309E-001
Al  4.98992167E-001  3.72736712E-001  8.74991585E-001
Al  4.98188446E-001  4.99981036E-001  -1.85925373E-005
Al  6.24667963E-001  6.24945688E-001  3.01161690E-005
Al  6.25008954E-001  4.99919147E-001  1.25416451E-001
Al  5.01700708E-001  6.27357434E-001  1.25050771E-001
Al  5.02462231E-001  4.99648124E-001  2.48520049E-001
Al  6.24845321E-001  6.24162481E-001  2.51410375E-001
Al  6.24980691E-001  5.00031451E-001  3.73487270E-001
Al  4.97803565E-001  6.27496128E-001  3.74991508E-001
Al  5.00570195E-001  4.99386848E-001  5.02477486E-001
Al  6.24981849E-001  6.22568531E-001  4.99981441E-001
Al  6.27475488E-001  5.00084048E-001  6.24944345E-001
Al  5.00883682E-001  6.24924420E-001  6.27201942E-001
Al  5.00067642E-001  5.00147913E-001  7.52317612E-001
Al  6.24915567E-001  6.25008643E-001  7.47657876E-001
Al  6.24971207E-001  5.02171133E-001  8.73079536E-001
Al  5.00165172E-001  6.26034918E-001  8.77433623E-001
Al  5.00580507E-001  7.49864262E-001  -2.39068122E-003
Al  6.25775344E-001  8.76726400E-001  -1.44349805E-003
Al  6.27495701E-001  7.49877848E-001  1.24981172E-001
Al  4.99856039E-001  8.74325350E-001  1.24943910E-001
Al  4.98672660E-001  7.49872967E-001  2.48978093E-001
Al  6.26634624E-001  8.74839159E-001  2.50009083E-001
Al  6.25019102E-001  7.49044329E-001  3.75018190E-001
Al  4.99975449E-001  8.76396593E-001  3.74980481E-001
Al  4.99945285E-001  7.49981804E-001  4.99981457E-001
Al  6.24248602E-001  8.74991229E-001  5.02330791E-001
Al  6.25592581E-001  7.49836388E-001  6.25780723E-001
Al  4.99161912E-001  8.75040187E-001  6.26702968E-001
Al  5.00059391E-001  7.51061038E-001  7.51866357E-001
Al  6.26629194E-001  8.75008413E-001  7.48783828E-001
Al  6.26658487E-001  7.47593883E-001  8.73188594E-001
Al  4.97605304E-001  8.75125245E-001  8.74901784E-001
Al  7.50561095E-001  -1.43873460E-003  -1.02224823E-003
Al  8.74991000E-001  1.24886169E-001  2.20727455E-003
Al  8.73793574E-001  2.49984580E-003  1.24215902E-001
Al  7.47505943E-001  1.22853103E-001  1.25396051E-001
Al  7.51517071E-001  2.49681446E-003  2.50090991E-001
Al  8.75207915E-001  1.25383228E-001  2.50565375E-001
Al  8.75175209E-001  2.30820260E-003  3.75043914E-001
Al  7.49967112E-001  1.24937887E-001  3.75018206E-001
Al  7.50730721E-001  -2.49617406E-003  4.99991454E-001
Al  8.75552878E-001  1.24760117E-001  4.99273523E-001
Al  8.74971646E-001  -2.13703228E-003  6.24914947E-001
Al  7.50048230E-001  1.25009649E-001  6.23903959E-001
Al  7.49613217E-001  -2.25027011E-003  7.49191821E-001
Al  8.75039969E-001  1.25260403E-001  7.49981893E-001
Al  8.74838682E-001  -1.55357276E-004  8.74618663E-001
Al  7.50018463E-001  1.24145642E-001  8.76648199E-001
Al  7.48366755E-001  2.48174176E-001  9.36431264E-004
Al  8.74799894E-001  3.74842205E-001  3.68779259E-005
Al  8.74288624E-001  2.49316752E-001  1.27005799E-001
Al  7.49671833E-001  3.72532840E-001  1.27451724E-001
Al  7.50009534E-001  2.51317612E-001  2.48575326E-001
Al  8.75022536E-001  3.73284983E-001  2.50089153E-001
Al  8.74843616E-001  2.48011468E-001  3.76733176E-001
Al  7.49828726E-001  3.74511094E-001  3.72521580E-001
Al  7.50427161E-001  2.49991564E-001  4.97907948E-001
Al  8.72570354E-001  3.77494638E-001  4.99936479E-001
Al  8.75509084E-001  2.49944892E-001  6.24759307E-001
Al  7.52414223E-001  3.76223025E-001  6.24973209E-001
Al  7.49666863E-001  2.49416787E-001  7.50872735E-001
Al  8.73408606E-001  3.74799948E-001  7.49233624E-001
Al  8.77109613E-001  2.49018889E-001  8.76145026E-001
Al  7.50009776E-001  3.74977466E-001  8.72959392E-001
Al  7.48216109E-001  4.98454286E-001  -1.85782261E-003
Al  8.76534953E-001  6.24864319E-001  1.96745594E-005
Al  8.74991419E-001  5.00018278E-001  1.25018570E-001
Al  7.50019147E-001  6.24280867E-001  1.25065683E-001
Al  7.49718785E-001  4.97721354E-001  2.52499698E-001
Al  8.74947108E-001  6.26584903E-001  2.50018404E-001
Al  8.75521816E-001  4.97503081E-001  3.72716774E-001
Al  7.50019553E-001  6.24877747E-001  3.77258680E-001
Al  7.49990681E-001  5.01994754E-001  4.97504539E-001
Al  8.77499605E-001  6.25068377E-001  4.97587440E-001
Al  8.75377555E-001  4.98024331E-001  6.25184141E-001
Al  7.48348174E-001  6.26029085E-001  6.25018786E-001
Al  7.50018298E-001  5.00060453E-001  7.51165023E-001
Al  8.75236689E-001  6.23464007E-001  7.47783778E-001
Al  8.76070349E-001  5.00042857E-001  8.74981885E-001
Al  7.50048710E-001  6.25695704E-001  8.75146602E-001
Al  7.52135850E-001  7.50669588E-001  -1.55849091E-004
Al  8.76832484E-001  8.75298310E-001  -2.15654564E-004
Al  8.73676560E-001  7.49960149E-001  1.25536015E-001
Al  7.48994828E-001  8.74140701E-001  1.23131629E-001
Al  7.49981564E-001  7.49837228E-001  2.50638513E-001
Al  8.74991569E-001  8.75056422E-001  2.49114482E-001
Al  8.74576198E-001  7.50959175E-001  3.76372546E-001
Al  7.51953413E-001  8.75125345E-001  3.76963774E-001
Al  7.49991597E-001  7.50009358E-001  5.00018757E-001
Al  8.75611999E-001  8.73791018E-001  4.99991624E-001
Al  8.77237939E-001  7.49981860E-001  6.25334289E-001
Al  7.48605709E-001  8.73551145E-001  6.24361967E-001
Al  7.49617882E-001  7.51628264E-001  7.50008640E-001
Al  8.75551074E-001  8.72599649E-001  7.48054309E-001
Al  8.76767743E-001  7.52194111E-001  8.73937484E-001
Al  7.49267223E-001  8.75149765E-001  8.75018918E-001
K_POINTS automatic
2 2 2 1 1 1
