&CONTROL
restart_mode = 'from_scratch',
calculation = 'scf',
outdir = '/gpfs/bb/bxp912/scratch',
pseudo_dir = '/gpfs/bb/bxp912/pseudopotentials',
prefix = '3.00000000E-001',
etot_conv_thr = 1.00000000E-007,
forc_conv_thr = 1.00000000E-007,
nstep = 200,
tprnfor = .true.,
tstress = .true.,
disk_io = 'low',
/
&SYSTEM
ibrav = 14,
celldm(1) = 3.05001797E+001,
celldm(2) = 1.00000000E+000,
celldm(3) = 1.00000000E+000,
celldm(4) = 0.00000000E+000,
celldm(5) = 0.00000000E+000,
celldm(6) = 0.00000000E+000,
nat = 256,
ntyp = 1,
ecutwfc = 35,
ecutrho = 208,
occupations = 'smearing',
smearing = 'mv',
degauss = 5.00000007E-002,
/
&ELECTRONS
diagonalization = 'david',
mixing_mode = plain,
mixing_beta = 6.99999988E-001,
conv_thr = 1.00000000E-007,
/
&IONS
ion_dynamics = 'bfgs',
/
&CELL
cell_dynamics = 'bfgs',
press = 0.00000000E+000,
cell_factor = 2.00000000E+000,
/
ATOMIC_SPECIES
Al  2.69815390E+001  Al.pbe-n-kjpaw_psl.0.1.UPF
ATOMIC_POSITIONS crystal
Al  -3.89330494E-004  1.67005257E-004  -1.02939622E-004
Al  1.23722276E-001  1.24952225E-001  7.71117145E-005
Al  1.25127871E-001  -1.01642489E-003  1.24980472E-001
Al  -1.61383187E-003  1.24572524E-001  1.25449090E-001
Al  -8.90855351E-004  1.79675351E-005  2.47872990E-001
Al  1.26436173E-001  1.24324076E-001  2.50087797E-001
Al  1.22622190E-001  2.17320026E-003  3.74980374E-001
Al  -1.84335858E-005  1.25104371E-001  3.75920556E-001
Al  1.29411858E-004  1.02269322E-003  4.97964197E-001
Al  1.25126085E-001  1.27494736E-001  4.99964683E-001
Al  1.26746361E-001  1.10258574E-004  6.25008466E-001
Al  -7.47373666E-005  1.22956767E-001  6.24251241E-001
Al  2.39381379E-003  -5.60480150E-005  7.49833002E-001
Al  1.27314828E-001  1.27437657E-001  7.50187871E-001
Al  1.24866411E-001  -7.43504412E-004  8.75019444E-001
Al  -1.81099939E-005  1.24971612E-001  8.74231546E-001
Al  -3.35919750E-004  2.51216623E-001  2.07260082E-005
Al  1.24770415E-001  3.74110395E-001  2.15404248E-003
Al  1.25574199E-001  2.49971579E-001  1.25057862E-001
Al  1.75539651E-003  3.76217449E-001  1.24980510E-001
Al  -2.49999427E-003  2.49991395E-001  2.51045586E-001
Al  1.24849543E-001  3.75434540E-001  2.50009703E-001
Al  1.25664082E-001  2.48712188E-001  3.76726700E-001
Al  -1.93962051E-003  3.75067932E-001  3.75391249E-001
Al  2.03472925E-003  2.50044556E-001  5.00662807E-001
Al  1.23748609E-001  3.75075732E-001  5.00346494E-001
Al  1.25065758E-001  2.50008501E-001  6.22664949E-001
Al  9.04830139E-006  3.73150939E-001  6.27497080E-001
Al  -1.81294725E-005  2.52498159E-001  7.51114206E-001
Al  1.22870487E-001  3.75270447E-001  7.47910937E-001
Al  1.25036031E-001  2.49120585E-001  8.76609581E-001
Al  -8.75380552E-004  3.74815622E-001  8.75116730E-001
Al  -1.12703486E-003  5.02226301E-001  -9.06289495E-006
Al  1.24990970E-001  6.24327635E-001  1.60600975E-003
Al  1.22500997E-001  5.00943525E-001  1.27322740E-001
Al  4.72594355E-004  6.27303129E-001  1.24374017E-001
Al  -1.96810396E-003  5.00049541E-001  2.50492968E-001
Al  1.26338183E-001  6.24980966E-001  2.50302278E-001
Al  1.24195149E-001  5.00389811E-001  3.75226172E-001
Al  -3.41383898E-004  6.22592928E-001  3.75062585E-001
Al  1.78487168E-003  5.02029650E-001  5.00018690E-001
Al  1.22664551E-001  6.25705429E-001  4.99981826E-001
Al  1.24947236E-001  5.00150604E-001  6.24970913E-001
Al  -8.57653919E-004  6.24980989E-001  6.25057336E-001
Al  1.72448347E-003  4.98085776E-001  7.50009397E-001
Al  1.25596643E-001  6.22504399E-001  7.52495351E-001
Al  1.24972680E-001  5.00008607E-001  8.75574751E-001
Al  -2.41448590E-004  6.25008380E-001  8.74143326E-001
Al  1.82172641E-005  7.52479276E-001  6.90261203E-004
Al  1.25188488E-001  8.74590264E-001  2.05554985E-003
Al  1.25331144E-001  7.52124245E-001  1.24607194E-001
Al  5.64460071E-004  8.76608895E-001  1.25136449E-001
Al  1.15191455E-003  7.50689318E-001  2.49538893E-001
Al  1.27411405E-001  8.75653879E-001  2.48057017E-001
Al  1.25055772E-001  7.52477784E-001  3.75495167E-001
Al  -2.41155390E-003  8.76354592E-001  3.72717236E-001
Al  -1.29312519E-003  7.49981167E-001  4.99958896E-001
Al  1.23649236E-001  8.72535886E-001  5.02125820E-001
Al  1.24138006E-001  7.50008506E-001  6.22517026E-001
Al  -3.28755473E-004  8.73062631E-001  6.27498044E-001
Al  1.04280936E-003  7.48294196E-001  7.50926083E-001
Al  1.25178477E-001  8.75972623E-001  7.49734540E-001
Al  1.24843357E-001  7.50806517E-001  8.75018733E-001
Al  -1.85611945E-004  8.74116853E-001  8.75398246E-001
Al  2.49981065E-001  8.89249360E-004  1.86881657E-005
Al  3.74942846E-001  1.22509499E-001  -1.58470731E-003
Al  3.75100157E-001  2.10524462E-005  1.25018109E-001
Al  2.49398640E-001  1.25018668E-001  1.25151649E-001
Al  2.48864650E-001  -2.43421643E-003  2.49369165E-001
Al  3.72794809E-001  1.27076578E-001  2.51092034E-001
Al  3.74805562E-001  -1.26818447E-003  3.73331944E-001
Al  2.48158009E-001  1.23421954E-001  3.77369861E-001
Al  2.50821469E-001  2.49876391E-003  5.02482484E-001
Al  3.74975289E-001  1.25022223E-001  5.00419078E-001
Al  3.75351282E-001  2.26629151E-003  6.25100463E-001
Al  2.50587815E-001  1.27489420E-001  6.24990957E-001
Al  2.48323488E-001  -1.25019035E-003  7.52315795E-001
Al  3.74531899E-001  1.24981319E-001  7.49258112E-001
Al  3.76506808E-001  7.42120184E-004  8.75426256E-001
Al  2.51063225E-001  1.24182606E-001  8.74056835E-001
Al  2.50638021E-001  2.50018288E-001  2.37201361E-003
Al  3.77327525E-001  3.77462979E-001  -1.83883525E-005
Al  3.74130866E-001  2.50008687E-001  1.27498131E-001
Al  2.49903211E-001  3.75072910E-001  1.24909555E-001
Al  2.50152901E-001  2.50197458E-001  2.47559718E-001
Al  3.75077859E-001  3.74991629E-001  2.49978264E-001
Al  3.74950745E-001  2.50811414E-001  3.74897475E-001
Al  2.47586930E-001  3.74976950E-001  3.73975385E-001
Al  2.50056376E-001  2.51737811E-001  5.01398717E-001
Al  3.74454742E-001  3.73432904E-001  5.00290638E-001
Al  3.75018740E-001  2.52424859E-001  6.24977720E-001
Al  2.47848665E-001  3.74880925E-001  6.27495694E-001
Al  2.49498849E-001  2.50034210E-001  7.49785848E-001
Al  3.76972558E-001  3.73023808E-001  7.51214591E-001
Al  3.74941231E-001  2.49856968E-001  8.74926983E-001
Al  2.48780962E-001  3.74718170E-001  8.74980071E-001
Al  2.47918856E-001  5.00019511E-001  -1.98993188E-004
Al  3.74979394E-001  6.23275118E-001  -1.50304907E-003
Al  3.74894759E-001  5.00076033E-001  1.25107335E-001
Al  2.50062272E-001  6.25169210E-001  1.22848569E-001
Al  2.49981830E-001  4.97864433E-001  2.48535677E-001
Al  3.74956232E-001  6.25021578E-001  2.48367231E-001
Al  3.75473497E-001  4.99990395E-001  3.74706290E-001
Al  2.50018263E-001  6.25071369E-001  3.77499931E-001
Al  2.52166448E-001  4.99991534E-001  5.02027755E-001
Al  3.73037253E-001  6.24976117E-001  4.99570939E-001
Al  3.74980924E-001  5.02300156E-001  6.26295603E-001
Al  2.49981637E-001  6.25018638E-001  6.25108127E-001
Al  2.51020738E-001  5.01432466E-001  7.50022434E-001
Al  3.77129818E-001  6.27447640E-001  7.50009289E-001
Al  3.72689840E-001  4.98509632E-001  8.73130321E-001
Al  2.50055828E-001  6.27351650E-001  8.74882995E-001
Al  2.47623990E-001  7.49064302E-001  -2.07668432E-004
Al  3.75026506E-001  8.75912224E-001  -9.68689895E-006
Al  3.74906040E-001  7.49785818E-001  1.24978570E-001
Al  2.49835433E-001  8.75280361E-001  1.26025775E-001
Al  2.49521399E-001  7.49956077E-001  2.49747783E-001
Al  3.75062719E-001  8.76024694E-001  2.47500625E-001
Al  3.75054086E-001  7.49961921E-001  3.73832919E-001
Al  2.48272799E-001  8.73035415E-001  3.74981762E-001
Al  2.48717875E-001  7.50110459E-001  5.00250221E-001
Al  3.77273114E-001  8.73988396E-001  4.99966729E-001
Al  3.74825357E-001  7.51597952E-001  6.25288858E-001
Al  2.52116645E-001  8.76147269E-001  6.24141303E-001
Al  2.50065591E-001  7.50150548E-001  7.50008743E-001
Al  3.77171406E-001  8.75026591E-001  7.49211892E-001
Al  3.74933894E-001  7.49946763E-001  8.74344242E-001
Al  2.49634648E-001  8.74884699E-001  8.72724441E-001
Al  5.01379350E-001  1.96301977E-003  -1.36607061E-003
Al  6.27256016E-001  1.26807720E-001  1.09590733E-003
Al  6.26248127E-001  1.36714663E-004  1.23599103E-001
Al  4.97697819E-001  1.24991314E-001  1.24919080E-001
Al  5.00509847E-001  -2.07379430E-005  2.47501393E-001
Al  6.27047405E-001  1.27169479E-001  2.48930570E-001
Al  6.25540950E-001  -8.50529730E-006  3.74720640E-001
Al  4.97837942E-001  1.25494887E-001  3.76414563E-001
Al  5.00254276E-001  -1.15128678E-004  5.00008916E-001
Al  6.23502447E-001  1.25273558E-001  5.00699620E-001
Al  6.22802493E-001  1.97294966E-005  6.24267810E-001
Al  4.97832058E-001  1.25863601E-001  6.23029399E-001
Al  4.97603889E-001  7.63068456E-005  7.47511550E-001
Al  6.26147768E-001  1.23911171E-001  7.50909790E-001
Al  6.25080279E-001  4.38772436E-004  8.76862365E-001
Al  5.01132807E-001  1.24697629E-001  8.75077020E-001
Al  5.00835283E-001  2.50008445E-001  2.38098050E-003
Al  6.25543809E-001  3.76151410E-001  2.15839846E-003
Al  6.22532228E-001  2.52432299E-001  1.27255503E-001
Al  5.00492676E-001  3.75009796E-001  1.25043857E-001
Al  5.00009651E-001  2.50647162E-001  2.50152797E-001
Al  6.24644256E-001  3.74991058E-001  2.52316088E-001
Al  6.26879445E-001  2.48365130E-001  3.74271816E-001
Al  5.00242698E-001  3.73039519E-001  3.73854344E-001
Al  5.00008875E-001  2.50028197E-001  5.00033656E-001
Al  6.24892819E-001  3.75195574E-001  5.00515446E-001
Al  6.24674381E-001  2.50047622E-001  6.25935777E-001
Al  5.01863326E-001  3.76698291E-001  6.25347717E-001
Al  5.02074590E-001  2.50386732E-001  7.48323003E-001
Al  6.25025710E-001  3.75249082E-001  7.50465357E-001
Al  6.24820411E-001  2.49481594E-001  8.75469550E-001
Al  4.97511204E-001  3.75009060E-001  8.73362356E-001
Al  4.99699364E-001  4.99991239E-001  -2.45416035E-003
Al  6.25372637E-001  6.24688250E-001  2.48197853E-003
Al  6.26175455E-001  4.99957761E-001  1.25390413E-001
Al  5.01366258E-001  6.26302193E-001  1.25110194E-001
Al  4.99385217E-001  4.99832652E-001  2.49524364E-001
Al  6.27124659E-001  6.25679911E-001  2.47642750E-001
Al  6.24981132E-001  4.99160177E-001  3.77499156E-001
Al  4.99783101E-001  6.27118840E-001  3.75040291E-001
Al  5.00059129E-001  5.01064525E-001  4.97501372E-001
Al  6.26806959E-001  6.24991629E-001  5.02432634E-001
Al  6.24886123E-001  5.00019782E-001  6.25200682E-001
Al  4.97504081E-001  6.24320411E-001  6.24354774E-001
Al  4.99982814E-001  5.00147388E-001  7.50032601E-001
Al  6.25122717E-001  6.23977022E-001  7.47521543E-001
Al  6.25139468E-001  4.99247039E-001  8.77492120E-001
Al  5.00546036E-001  6.25009082E-001  8.74815364E-001
Al  4.98039834E-001  7.52397031E-001  2.27793339E-003
Al  6.25312430E-001  8.73889147E-001  1.78135379E-005
Al  6.24197377E-001  7.50258187E-001  1.23031596E-001
Al  5.00312712E-001  8.75019340E-001  1.25041800E-001
Al  5.00616239E-001  7.51050271E-001  2.47572802E-001
Al  6.24836764E-001  8.75026210E-001  2.47538814E-001
Al  6.24550617E-001  7.50475215E-001  3.74973088E-001
Al  5.00736904E-001  8.76588560E-001  3.74181294E-001
Al  5.01121281E-001  7.49935536E-001  4.99970945E-001
Al  6.24858504E-001  8.73861803E-001  5.00118215E-001
Al  6.24865945E-001  7.52089047E-001  6.24991551E-001
Al  5.00008865E-001  8.73461388E-001  6.25926141E-001
Al  4.99451042E-001  7.49867379E-001  7.50966746E-001
Al  6.27236376E-001  8.76822151E-001  7.47516789E-001
Al  6.22730299E-001  7.48403901E-001  8.75154406E-001
Al  5.00993629E-001  8.75018403E-001  8.72537500E-001
Al  7.50032925E-001  -9.69398136E-006  -9.56833248E-005
Al  8.74897133E-001  1.25842930E-001  1.21162470E-003
Al  8.77498929E-001  -6.72729355E-004  1.26019295E-001
Al  7.49518050E-001  1.26330205E-001  1.24917178E-001
Al  7.50022791E-001  -2.33997377E-003  2.50580728E-001
Al  8.75044934E-001  1.24981780E-001  2.51592230E-001
Al  8.74274699E-001  -3.18647693E-005  3.74823603E-001
Al  7.48845871E-001  1.24893688E-001  3.76423034E-001
Al  7.50008520E-001  8.46566603E-004  4.99653191E-001
Al  8.73349055E-001  1.25650158E-001  4.98035644E-001
Al  8.75784854E-001  9.90182981E-004  6.25271183E-001
Al  7.52365295E-001  1.25126501E-001  6.25043790E-001
Al  7.48669418E-001  -5.37623516E-004  7.49979861E-001
Al  8.74958874E-001  1.24770032E-001  7.48489921E-001
Al  8.74881029E-001  1.14307588E-004  8.73574786E-001
Al  7.50385730E-001  1.25862596E-001  8.76487298E-001
Al  7.52383946E-001  2.49749159E-001  4.57834620E-004
Al  8.75391115E-001  3.74991623E-001  -2.06738658E-003
Al  8.74751025E-001  2.49893694E-001  1.25020125E-001
Al  7.50018464E-001  3.74200463E-001  1.23149301E-001
Al  7.49905627E-001  2.52324841E-001  2.51001244E-001
Al  8.74640281E-001  3.72583202E-001  2.50486630E-001
Al  8.75239321E-001  2.51632596E-001  3.72928095E-001
Al  7.52499523E-001  3.77271942E-001  3.72882266E-001
Al  7.48024446E-001  2.48107605E-001  4.99575274E-001
Al  8.75662059E-001  3.75783223E-001  5.01816195E-001
Al  8.75187472E-001  2.50272600E-001  6.24976335E-001
Al  7.49904944E-001  3.74756163E-001  6.25119832E-001
Al  7.50064562E-001  2.50031756E-001  7.49927660E-001
Al  8.75333574E-001  3.74991530E-001  7.49764180E-001
Al  8.75135519E-001  2.48984386E-001  8.72671164E-001
Al  7.48804215E-001  3.72624578E-001  8.75019221E-001
Al  7.50047019E-001  5.00043064E-001  -6.19666547E-004
Al  8.74975224E-001  6.25152180E-001  2.30138289E-003
Al  8.75259696E-001  5.02497948E-001  1.24087586E-001
Al  7.50508980E-001  6.24028106E-001  1.25848186E-001
Al  7.49935476E-001  4.99980350E-001  2.50402115E-001
Al  8.74703790E-001  6.25287882E-001  2.50372118E-001
Al  8.75595196E-001  5.02191317E-001  3.74979663E-001
Al  7.47621693E-001  6.22504361E-001  3.72645575E-001
Al  7.50788376E-001  4.99945587E-001  4.99735518E-001
Al  8.73085569E-001  6.24912710E-001  5.01118743E-001
Al  8.74150952E-001  4.99231308E-001  6.25527970E-001
Al  7.49925982E-001  6.24675696E-001  6.22541551E-001
Al  7.49690182E-001  4.97647303E-001  7.51039339E-001
Al  8.75018114E-001  6.23972579E-001  7.49149012E-001
Al  8.77468342E-001  4.98910980E-001  8.77051078E-001
Al  7.49981780E-001  6.25746300E-001  8.73550772E-001
Al  7.50165376E-001  7.52214308E-001  2.47036956E-003
Al  8.74981803E-001  8.74982815E-001  2.86913260E-005
Al  8.73657402E-001  7.49687019E-001  1.22793804E-001
Al  7.50516063E-001  8.74739660E-001  1.24974513E-001
Al  7.50018384E-001  7.50699740E-001  2.50873126E-001
Al  8.74761079E-001  8.77492374E-001  2.48797317E-001
Al  8.76155331E-001  7.49698059E-001  3.77107780E-001
Al  7.49923900E-001  8.77499078E-001  3.75470151E-001
Al  7.52271698E-001  7.50924438E-001  4.99936595E-001
Al  8.75787692E-001  8.76420864E-001  5.01991619E-001
Al  8.72589495E-001  7.49828325E-001  6.25350302E-001
Al  7.49143257E-001  8.75008697E-001  6.22748167E-001
Al  7.49892590E-001  7.52253211E-001  7.47684177E-001
Al  8.75418331E-001  8.72510779E-001  7.50417814E-001
Al  8.74954593E-001  7.48975293E-001  8.72793782E-001
Al  7.51284942E-001  8.74950923E-001  8.77244945E-001
K_POINTS automatic
2 2 2 1 1 1
