&CONTROL
restart_mode = 'from_scratch',
calculation = 'scf',
outdir = '/gpfs/bb/bxp912/scratch',
pseudo_dir = '/gpfs/bb/bxp912/pseudopotentials',
prefix = '1.44000000E-001',
etot_conv_thr = 1.00000000E-007,
forc_conv_thr = 1.00000000E-007,
nstep = 200,
tprnfor = .true.,
tstress = .true.,
disk_io = 'low',
/
&SYSTEM
ibrav = 14,
celldm(1) = 8.07000000E+000,
celldm(2) = 1.00000000E+000,
celldm(3) = 1.00000000E+000,
celldm(4) = 0.00000000E+000,
celldm(5) = 0.00000000E+000,
celldm(6) = 0.00000000E+000,
nat = 32,
ntyp = 1,
ecutwfc = 35,
ecutrho = 208,
occupations = 'smearing',
smearing = 'mv',
degauss = 5.00000007E-002,
/
&ELECTRONS
diagonalization = 'david',
mixing_mode = plain,
mixing_beta = 6.99999988E-001,
conv_thr = 1.00000000E-007,
/
&IONS
ion_dynamics = 'bfgs',
/
&CELL
cell_dynamics = 'bfgs',
press = 0.00000000E+000,
cell_factor = 2.00000000E+000,
/
ATOMIC_SPECIES
Al  2.69815390E+001  Al.pbe-n-kjpaw_psl.0.1.UPF
ATOMIC_POSITIONS crystal
Al  -2.24209112E-003  4.99395310E-003  -6.71653224E-004
Al  2.49654895E-001  2.47871456E-001  -4.86030741E-003
Al  2.45273811E-001  4.73223138E-004  2.49963614E-001
Al  -6.00469456E-004  2.49935054E-001  2.49821029E-001
Al  -1.21043460E-003  -2.89182363E-004  5.00141789E-001
Al  2.48337931E-001  2.52328946E-001  5.01995236E-001
Al  2.45047663E-001  3.00812396E-004  7.50036333E-001
Al  -4.25947849E-005  2.49593736E-001  7.50091094E-001
Al  -3.82790901E-005  5.04786777E-001  -6.91330290E-004
Al  2.45067656E-001  7.49826287E-001  1.14476174E-003
Al  2.54841150E-001  5.00204170E-001  2.48174306E-001
Al  -4.94979887E-003  7.46124257E-001  2.49960483E-001
Al  -3.62626111E-005  5.00037639E-001  4.95100396E-001
Al  2.45846442E-001  7.46951073E-001  5.00017135E-001
Al  2.50016910E-001  4.96984747E-001  7.45707273E-001
Al  -3.66617354E-005  7.54043274E-001  7.50103636E-001
Al  5.00036613E-001  -1.60532486E-004  5.19546724E-004
Al  7.45272237E-001  2.48263072E-001  5.47345915E-004
Al  7.52610207E-001  -4.62672313E-003  2.46152932E-001
Al  5.03148067E-001  2.50414418E-001  2.54827408E-001
Al  4.95374606E-001  2.46471940E-003  5.04234564E-001
Al  7.53723862E-001  2.52575210E-001  5.01227699E-001
Al  7.47561664E-001  -4.12649676E-003  7.52061540E-001
Al  4.99925204E-001  2.54997401E-001  7.50017014E-001
Al  4.96063133E-001  4.99484606E-001  -1.37164225E-004
Al  7.47592332E-001  7.52984776E-001  5.44719227E-005
Al  7.45031447E-001  4.98809069E-001  2.46487667E-001
Al  5.00043325E-001  7.50935444E-001  2.50132714E-001
Al  5.02108677E-001  5.00166963E-001  5.01960654E-001
Al  7.49959549E-001  7.46098870E-001  5.01616538E-001
Al  7.52508551E-001  5.04131930E-001  7.49947448E-001
Al  5.02235929E-001  7.51861595E-001  7.48205585E-001
K_POINTS automatic
2 2 2 1 1 1
