&CONTROL
restart_mode = 'from_scratch',
calculation = 'scf',
outdir = '/gpfs/bb/bxp912/scratch',
pseudo_dir = '/gpfs/bb/bxp912/pseudopotentials',
prefix = '3.00000000E-001',
etot_conv_thr = 1.00000000E-007,
forc_conv_thr = 1.00000000E-007,
nstep = 200,
tprnfor = .true.,
tstress = .true.,
disk_io = 'low',
/
&SYSTEM
ibrav = 14,
celldm(1) = 3.05001797E+001,
celldm(2) = 1.00000000E+000,
celldm(3) = 1.00000000E+000,
celldm(4) = 0.00000000E+000,
celldm(5) = 0.00000000E+000,
celldm(6) = 0.00000000E+000,
nat = 256,
ntyp = 1,
ecutwfc = 35,
ecutrho = 208,
occupations = 'smearing',
smearing = 'mv',
degauss = 5.00000007E-002,
/
&ELECTRONS
diagonalization = 'david',
mixing_mode = plain,
mixing_beta = 6.99999988E-001,
conv_thr = 1.00000000E-007,
/
&IONS
ion_dynamics = 'bfgs',
/
&CELL
cell_dynamics = 'bfgs',
press = 0.00000000E+000,
cell_factor = 2.00000000E+000,
/
ATOMIC_SPECIES
Al  2.69815390E+001  Al.pbe-n-kjpaw_psl.0.1.UPF
ATOMIC_POSITIONS crystal
Al  -2.43091793E-003  -3.91029904E-004  2.49948307E-003
Al  1.22703109E-001  1.22955517E-001  1.90222852E-003
Al  1.25994157E-001  -7.98494760E-004  1.24914870E-001
Al  2.41885945E-003  1.24625295E-001  1.24436565E-001
Al  -6.40569449E-005  -1.27940550E-004  2.52382614E-001
Al  1.25039324E-001  1.25967684E-001  2.48460455E-001
Al  1.22522771E-001  -2.47350584E-003  3.75009491E-001
Al  -1.01046828E-003  1.24252364E-001  3.72837870E-001
Al  -7.19273960E-005  9.05294527E-004  5.00458636E-001
Al  1.26486643E-001  1.24609383E-001  5.00047406E-001
Al  1.24926600E-001  -2.21144053E-004  6.25048452E-001
Al  -2.01905490E-003  1.26808347E-001  6.24981550E-001
Al  -3.80092282E-004  -1.68127008E-003  7.52499943E-001
Al  1.26261346E-001  1.24991034E-001  7.50046057E-001
Al  1.23173878E-001  -1.83889053E-004  8.74980417E-001
Al  -4.90633169E-004  1.22500513E-001  8.76838639E-001
Al  -2.49995969E-003  2.50009547E-001  1.86266345E-005
Al  1.22709673E-001  3.73166093E-001  3.66415526E-004
Al  1.23699596E-001  2.50017558E-001  1.25035183E-001
Al  2.65671707E-005  3.74991307E-001  1.27475298E-001
Al  2.95244486E-004  2.51698879E-001  2.50640252E-001
Al  1.26601589E-001  3.72500668E-001  2.52180549E-001
Al  1.25640009E-001  2.49981482E-001  3.75075368E-001
Al  -1.37741049E-003  3.72635987E-001  3.77361258E-001
Al  8.70301908E-004  2.47523190E-001  5.01176203E-001
Al  1.25087944E-001  3.74196905E-001  5.00799608E-001
Al  1.23016557E-001  2.47672786E-001  6.25314624E-001
Al  -2.08137512E-003  3.72745557E-001  6.23319818E-001
Al  1.23733990E-004  2.50360796E-001  7.49652634E-001
Al  1.24331320E-001  3.72505321E-001  7.48806974E-001
Al  1.25301594E-001  2.49500816E-001  8.76044902E-001
Al  6.68512703E-004  3.72525019E-001  8.75797939E-001
Al  -1.31220655E-004  4.99797009E-001  -1.05061829E-003
Al  1.22572404E-001  6.25022412E-001  -1.45037990E-004
Al  1.25203671E-001  4.98079400E-001  1.24051247E-001
Al  -2.40584595E-003  6.27002240E-001  1.27049147E-001
Al  9.84910211E-005  5.01160020E-001  2.49733935E-001
Al  1.27479841E-001  6.23298510E-001  2.49884871E-001
Al  1.23136057E-001  4.99329365E-001  3.76824047E-001
Al  -4.51483662E-004  6.26776181E-001  3.73891061E-001
Al  4.04950664E-004  4.97864046E-001  4.97549538E-001
Al  1.24604054E-001  6.24120154E-001  5.02485440E-001
Al  1.25008471E-001  4.99939545E-001  6.24537490E-001
Al  2.23825741E-004  6.27102597E-001  6.25018134E-001
Al  1.08003994E-004  5.00937548E-001  7.49094749E-001
Al  1.25717360E-001  6.24776888E-001  7.49676988E-001
Al  1.22738495E-001  4.98337086E-001  8.75031490E-001
Al  1.60026490E-003  6.24980122E-001  8.76104238E-001
Al  -1.87264991E-003  7.51989002E-001  6.50777140E-004
Al  1.22619342E-001  8.75435047E-001  2.22690444E-003
Al  1.24991608E-001  7.52199066E-001  1.25040481E-001
Al  2.49735307E-003  8.74754937E-001  1.26162318E-001
Al  2.73420261E-005  7.50071448E-001  2.50018326E-001
Al  1.24559940E-001  8.75039278E-001  2.49373696E-001
Al  1.25207677E-001  7.49951873E-001  3.74559505E-001
Al  -1.38363590E-003  8.77250139E-001  3.74893460E-001
Al  1.92375721E-003  7.50466353E-001  5.00381027E-001
Al  1.24259737E-001  8.75182758E-001  5.02073798E-001
Al  1.24309813E-001  7.52465834E-001  6.25019392E-001
Al  -2.12314439E-004  8.74049734E-001  6.24991062E-001
Al  3.11137263E-004  7.51707960E-001  7.50018219E-001
Al  1.27498776E-001  8.75188903E-001  7.48840898E-001
Al  1.23685475E-001  7.47565987E-001  8.72801595E-001
Al  2.49528037E-003  8.72626192E-001  8.74888619E-001
Al  2.50106433E-001  -2.16409040E-003  1.81074232E-005
Al  3.73452619E-001  1.27499898E-001  5.78455696E-005
Al  3.74981892E-001  1.67272498E-003  1.27145191E-001
Al  2.48535598E-001  1.26224015E-001  1.24812440E-001
Al  2.51976175E-001  -1.97445782E-003  2.52444628E-001
Al  3.76737186E-001  1.25932479E-001  2.49869400E-001
Al  3.77499789E-001  1.96331958E-005  3.75168010E-001
Al  2.49975488E-001  1.23176514E-001  3.77499312E-001
Al  2.49959044E-001  2.17992986E-003  4.99636760E-001
Al  3.75027450E-001  1.24104053E-001  5.00554164E-001
Al  3.76102108E-001  -6.35584076E-004  6.24399858E-001
Al  2.50009065E-001  1.24981379E-001  6.25008650E-001
Al  2.51282255E-001  1.15123283E-003  7.49474685E-001
Al  3.74981347E-001  1.23081827E-001  7.48727377E-001
Al  3.73700889E-001  1.37776814E-004  8.77495014E-001
Al  2.49440608E-001  1.26803069E-001  8.72917594E-001
Al  2.48360070E-001  2.47741023E-001  5.88021634E-004
Al  3.74833698E-001  3.76076830E-001  1.86125725E-005
Al  3.75008584E-001  2.52499410E-001  1.25862137E-001
Al  2.47501310E-001  3.74247977E-001  1.23874556E-001
Al  2.51156931E-001  2.50147956E-001  2.48505997E-001
Al  3.75008391E-001  3.75065853E-001  2.49661325E-001
Al  3.75074812E-001  2.47560324E-001  3.72698952E-001
Al  2.49603003E-001  3.73821621E-001  3.72675438E-001
Al  2.52402548E-001  2.52059973E-001  5.00622744E-001
Al  3.75501530E-001  3.75697749E-001  5.00503459E-001
Al  3.74277121E-001  2.48832185E-001  6.25367322E-001
Al  2.49131971E-001  3.74967260E-001  6.23894974E-001
Al  2.47702787E-001  2.52087923E-001  7.49527448E-001
Al  3.76926983E-001  3.74027671E-001  7.50987938E-001
Al  3.74954538E-001  2.47701338E-001  8.77484704E-001
Al  2.50698676E-001  3.74449526E-001  8.75018910E-001
Al  2.51654494E-001  5.00024427E-001  -2.26049201E-003
Al  3.74169039E-001  6.24799786E-001  2.05901747E-004
Al  3.72749417E-001  4.99981262E-001  1.24991196E-001
Al  2.50017772E-001  6.24364808E-001  1.27328812E-001
Al  2.49942422E-001  5.00405659E-001  2.47857398E-001
Al  3.74898171E-001  6.23454897E-001  2.48279541E-001
Al  3.77426870E-001  5.02081283E-001  3.73787961E-001
Al  2.49113991E-001  6.24679512E-001  3.74981723E-001
Al  2.50029902E-001  5.00108864E-001  4.98289903E-001
Al  3.75008421E-001  6.23613439E-001  4.99981407E-001
Al  3.75018117E-001  4.99218968E-001  6.25224630E-001
Al  2.52447186E-001  6.22501544E-001  6.27198453E-001
Al  2.49968557E-001  4.99113163E-001  7.51510182E-001
Al  3.74413830E-001  6.25078530E-001  7.47950542E-001
Al  3.76654013E-001  4.99990550E-001  8.74791414E-001
Al  2.51984487E-001  6.27419774E-001  8.74981858E-001
Al  2.48932285E-001  7.48736775E-001  -8.66002228E-004
Al  3.72684866E-001  8.73101314E-001  2.51786888E-004
Al  3.75018127E-001  7.49910228E-001  1.23793646E-001
Al  2.49832667E-001  8.77035316E-001  1.26690491E-001
Al  2.52157326E-001  7.50771500E-001  2.47814630E-001
Al  3.73932120E-001  8.75402795E-001  2.49152958E-001
Al  3.74548477E-001  7.47841660E-001  3.76329351E-001
Al  2.49981308E-001  8.77315833E-001  3.75075609E-001
Al  2.47511020E-001  7.48404758E-001  5.00024779E-001
Al  3.75177704E-001  8.74794235E-001  4.99597529E-001
Al  3.75303192E-001  7.49976452E-001  6.25238679E-001
Al  2.51032487E-001  8.75606665E-001  6.23974456E-001
Al  2.49225772E-001  7.48166008E-001  7.49812179E-001
Al  3.72681204E-001  8.76070676E-001  7.49645615E-001
Al  3.74117823E-001  7.50008697E-001  8.77418249E-001
Al  2.51008958E-001  8.75009067E-001  8.76533992E-001
Al  5.00877632E-001  9.50969992E-004  -2.46989589E-003
Al  6.25619761E-001  1.25020130E-001  -7.05120640E-004
Al  6.27159108E-001  -3.11284737E-005  1.26075472E-001
Al  4.99990514E-001  1.24968588E-001  1.25009089E-001
Al  4.99991590E-001  -1.88634803E-005  2.51501865E-001
Al  6.24429037E-001  1.24980525E-001  2.50052582E-001
Al  6.22505084E-001  -8.45744706E-006  3.74982032E-001
Al  5.00068080E-001  1.26901027E-001  3.75079295E-001
Al  4.99210445E-001  3.29385631E-004  4.97699158E-001
Al  6.22687041E-001  1.22537649E-001  4.97696137E-001
Al  6.25121388E-001  2.34788245E-003  6.24980398E-001
Al  5.00321801E-001  1.26929151E-001  6.26780007E-001
Al  4.99836020E-001  1.48536727E-003  7.50008435E-001
Al  6.24965792E-001  1.24837276E-001  7.48326644E-001
Al  6.24937040E-001  -1.98500211E-003  8.76325937E-001
Al  4.99979206E-001  1.25019688E-001  8.75008844E-001
Al  5.02342326E-001  2.49519504E-001  -4.80140966E-004
Al  6.24404806E-001  3.75032993E-001  -3.95890940E-005
Al  6.22530100E-001  2.50236369E-001  1.24817414E-001
Al  4.99652351E-001  3.76027334E-001  1.25801568E-001
Al  4.98515429E-001  2.49959132E-001  2.51096367E-001
Al  6.25009224E-001  3.75652931E-001  2.48826185E-001
Al  6.24936652E-001  2.50022900E-001  3.74400034E-001
Al  5.02485967E-001  3.74642837E-001  3.75113604E-001
Al  4.97535045E-001  2.50087659E-001  5.00105376E-001
Al  6.25227657E-001  3.73082102E-001  5.00019957E-001
Al  6.22658289E-001  2.50915874E-001  6.23743543E-001
Al  5.02455558E-001  3.74990437E-001  6.24758608E-001
Al  5.00930235E-001  2.49205586E-001  7.48904086E-001
Al  6.26686125E-001  3.74324805E-001  7.49872527E-001
Al  6.25018739E-001  2.49275663E-001  8.76397978E-001
Al  4.99476191E-001  3.75008648E-001  8.77075679E-001
Al  4.99936708E-001  4.98329086E-001  -2.11991926E-003
Al  6.24776417E-001  6.22502162E-001  1.52496377E-003
Al  6.24788480E-001  5.02461088E-001  1.24883970E-001
Al  4.99737310E-001  6.24162198E-001  1.24730902E-001
Al  4.97546814E-001  5.01356764E-001  2.49126470E-001
Al  6.25040195E-001  6.22592771E-001  2.52486821E-001
Al  6.24930800E-001  4.97500381E-001  3.76631827E-001
Al  4.99889125E-001  6.25018809E-001  3.76206483E-001
Al  4.99930857E-001  4.99353987E-001  5.00018117E-001
Al  6.26868890E-001  6.23919419E-001  4.97915868E-001
Al  6.26933020E-001  4.99645183E-001  6.24969595E-001
Al  4.97521039E-001  6.22707561E-001  6.27484883E-001
Al  4.99991034E-001  5.01144231E-001  7.51260029E-001
Al  6.25418488E-001  6.25018108E-001  7.50570424E-001
Al  6.24779628E-001  5.02079767E-001  8.74419174E-001
Al  5.00019608E-001  6.22821655E-001  8.74936443E-001
Al  5.00027505E-001  7.51532486E-001  -1.20020564E-003
Al  6.25300395E-001  8.77251044E-001  3.27500357E-004
Al  6.23681413E-001  7.48720111E-001  1.26667684E-001
Al  4.98250082E-001  8.75042119E-001  1.23569346E-001
Al  4.99991581E-001  7.50018266E-001  2.52469779E-001
Al  6.23362292E-001  8.74528724E-001  2.50277771E-001
Al  6.22687041E-001  7.50606949E-001  3.76036977E-001
Al  5.00547042E-001  8.75435778E-001  3.75836314E-001
Al  5.02454455E-001  7.50344961E-001  4.99919104E-001
Al  6.26489461E-001  8.75769543E-001  5.01948942E-001
Al  6.25039396E-001  7.48379238E-001  6.23108252E-001
Al  5.00639693E-001  8.74535680E-001  6.25487403E-001
Al  4.99752219E-001  7.48563144E-001  7.48221008E-001
Al  6.24799256E-001  8.75066589E-001  7.52443124E-001
Al  6.25036832E-001  7.50152873E-001  8.74180500E-001
Al  5.00184982E-001  8.75407831E-001  8.74605223E-001
Al  7.49981375E-001  1.55700269E-003  1.33452352E-004
Al  8.75155574E-001  1.25334980E-001  -1.81249590E-005
Al  8.76726730E-001  1.50587512E-003  1.24991572E-001
Al  7.51253783E-001  1.26048359E-001  1.22568946E-001
Al  7.49424030E-001  2.24612710E-003  2.49549253E-001
Al  8.74981869E-001  1.25115469E-001  2.50452842E-001
Al  8.74990752E-001  -2.79436279E-004  3.72617082E-001
Al  7.49991574E-001  1.24964280E-001  3.74972536E-001
Al  7.49858905E-001  4.35955537E-004  4.99972417E-001
Al  8.75250835E-001  1.27152556E-001  5.00428737E-001
Al  8.75316451E-001  -1.17990749E-003  6.25156930E-001
Al  7.49804170E-001  1.25845409E-001  6.24974705E-001
Al  7.51049935E-001  8.37146140E-006  7.50787938E-001
Al  8.74962131E-001  1.26642937E-001  7.49291627E-001
Al  8.75027944E-001  -2.19072946E-003  8.74422396E-001
Al  7.50027799E-001  1.22592650E-001  8.72809134E-001
Al  7.52233784E-001  2.49563783E-001  -2.43388048E-005
Al  8.74777547E-001  3.75049187E-001  1.26900622E-003
Al  8.72675705E-001  2.48800059E-001  1.27060566E-001
Al  7.49658761E-001  3.74833900E-001  1.25018108E-001
Al  7.51811337E-001  2.47536960E-001  2.50546222E-001
Al  8.74921438E-001  3.75054597E-001  2.50302318E-001
Al  8.77329270E-001  2.48095024E-001  3.72617458E-001
Al  7.50008514E-001  3.74811133E-001  3.75367715E-001
Al  7.48966899E-001  2.52314773E-001  4.98781212E-001
Al  8.77179981E-001  3.74500865E-001  5.00078814E-001
Al  8.74890516E-001  2.50106455E-001  6.22518078E-001
Al  7.47583340E-001  3.76652759E-001  6.24558132E-001
Al  7.48917798E-001  2.51297539E-001  7.50282824E-001
Al  8.77499727E-001  3.77494058E-001  7.49517323E-001
Al  8.73937761E-001  2.50488592E-001  8.74141006E-001
Al  7.49721802E-001  3.74294682E-001  8.74981617E-001
Al  7.48727348E-001  4.99939879E-001  -1.16657100E-003
Al  8.75032819E-001  6.26478175E-001  1.54987054E-004
Al  8.73938241E-001  5.01415481E-001  1.24173767E-001
Al  7.49302596E-001  6.25008973E-001  1.26818266E-001
Al  7.51592365E-001  5.00018615E-001  2.50064631E-001
Al  8.72517638E-001  6.25190252E-001  2.50035440E-001
Al  8.73371394E-001  4.98617751E-001  3.75731238E-001
Al  7.49405081E-001  6.25017415E-001  3.77146698E-001
Al  7.47777693E-001  5.02375392E-001  4.99991478E-001
Al  8.74991253E-001  6.25282993E-001  4.98244932E-001
Al  8.75099547E-001  5.00371886E-001  6.24991197E-001
Al  7.50168557E-001  6.27117581E-001  6.24981035E-001
Al  7.47841938E-001  4.99024534E-001  7.50049141E-001
Al  8.74908726E-001  6.24977595E-001  7.47711892E-001
Al  8.75600462E-001  4.98862446E-001  8.76945963E-001
Al  7.49863091E-001  6.24506050E-001  8.76739788E-001
Al  7.49981377E-001  7.49747259E-001  1.15021362E-003
Al  8.76309575E-001  8.75052471E-001  2.05133287E-004
Al  8.73472307E-001  7.50911404E-001  1.23885155E-001
Al  7.50529344E-001  8.75070370E-001  1.24981830E-001
Al  7.47665558E-001  7.50734203E-001  2.50133971E-001
Al  8.74956516E-001  8.75557702E-001  2.50154705E-001
Al  8.72514685E-001  7.49505845E-001  3.75386011E-001
Al  7.50242111E-001  8.74513237E-001  3.75308941E-001
Al  7.52404796E-001  7.47584227E-001  5.02255619E-001
Al  8.77021862E-001  8.75055606E-001  5.00257872E-001
Al  8.74991366E-001  7.52132792E-001  6.27124393E-001
Al  7.50008394E-001  8.72772332E-001  6.24108521E-001
Al  7.52318848E-001  7.50864711E-001  7.50059275E-001
Al  8.72550898E-001  8.77466479E-001  7.49939251E-001
Al  8.75022764E-001  7.49975602E-001  8.73586993E-001
Al  7.51207025E-001  8.74820156E-001  8.75008433E-001
K_POINTS automatic
2 2 2 1 1 1
