&CONTROL
restart_mode = 'from_scratch',
calculation = 'scf',
outdir = '/gpfs/bb/bxp912/scratch',
pseudo_dir = '/gpfs/bb/bxp912/pseudopotentials',
prefix = '1.44000000E-001',
etot_conv_thr = 1.00000000E-007,
forc_conv_thr = 1.00000000E-007,
nstep = 200,
tprnfor = .true.,
tstress = .true.,
disk_io = 'low',
/
&SYSTEM
ibrav = 14,
celldm(1) = 8.07000000E+000,
celldm(2) = 1.00000000E+000,
celldm(3) = 1.00000000E+000,
celldm(4) = 0.00000000E+000,
celldm(5) = 0.00000000E+000,
celldm(6) = 0.00000000E+000,
nat = 32,
ntyp = 1,
ecutwfc = 35,
ecutrho = 208,
occupations = 'smearing',
smearing = 'mv',
degauss = 5.00000007E-002,
/
&ELECTRONS
diagonalization = 'david',
mixing_mode = plain,
mixing_beta = 6.99999988E-001,
conv_thr = 1.00000000E-007,
/
&IONS
ion_dynamics = 'bfgs',
/
&CELL
cell_dynamics = 'bfgs',
press = 0.00000000E+000,
cell_factor = 2.00000000E+000,
/
ATOMIC_SPECIES
Al  2.69815390E+001  Al.pbe-n-kjpaw_psl.0.1.UPF
ATOMIC_POSITIONS crystal
Al  3.11088661E-003  4.01024634E-005  2.95284558E-003
Al  2.53259429E-001  2.49355992E-001  -1.89583540E-005
Al  2.49962139E-001  4.69839415E-004  2.48825024E-001
Al  -3.76404919E-003  2.48355606E-001  2.45274160E-001
Al  1.76307717E-003  -1.68186348E-005  4.99961853E-001
Al  2.46375915E-001  2.51140766E-001  4.95617813E-001
Al  2.50773670E-001  2.44837303E-003  7.51248960E-001
Al  -4.41285617E-004  2.49666446E-001  7.50518864E-001
Al  1.10388123E-003  5.00081705E-001  -2.87246997E-004
Al  2.53759595E-001  7.50161354E-001  -2.76743076E-003
Al  2.49982647E-001  4.99916158E-001  2.50040568E-001
Al  1.60455396E-004  7.49329665E-001  2.49959771E-001
Al  2.29510773E-003  4.95188060E-001  5.03625407E-001
Al  2.49677344E-001  7.52946445E-001  5.04336800E-001
Al  2.52308816E-001  5.03912068E-001  7.49143842E-001
Al  -4.53846425E-003  7.50764697E-001  7.45264107E-001
Al  4.99963069E-001  -3.44046895E-003  -1.21965624E-003
Al  7.53973588E-001  2.45075952E-001  -4.97526268E-003
Al  7.47135468E-001  1.90668233E-003  2.50273697E-001
Al  4.99983180E-001  2.53800588E-001  2.51844113E-001
Al  4.98853681E-001  1.25074490E-003  4.99480826E-001
Al  7.51192870E-001  2.49152223E-001  4.99215442E-001
Al  7.50062922E-001  4.19624544E-005  7.49322099E-001
Al  4.99895118E-001  2.50383026E-001  7.51423122E-001
Al  4.98169684E-001  4.96114938E-001  2.89613725E-003
Al  7.45047494E-001  7.50383362E-001  -1.74128550E-005
Al  7.49355855E-001  5.03062328E-001  2.49485604E-001
Al  4.95020447E-001  7.54825467E-001  2.47770592E-001
Al  5.02379886E-001  4.95203973E-001  5.00037070E-001
Al  7.49963430E-001  7.50036578E-001  4.99965193E-001
Al  7.49946513E-001  5.01481496E-001  7.54134063E-001
Al  5.00826382E-001  7.52894392E-001  7.48911789E-001
K_POINTS automatic
2 2 2 1 1 1
