&CONTROL
restart_mode = 'from_scratch',
calculation = 'scf',
outdir = '/gpfs/bb/bxp912/scratch',
pseudo_dir = '/gpfs/bb/bxp912/pseudopotentials',
prefix = '1.44000000E-001',
etot_conv_thr = 1.00000000E-007,
forc_conv_thr = 1.00000000E-007,
nstep = 200,
tprnfor = .true.,
tstress = .true.,
disk_io = 'low',
/
&SYSTEM
ibrav = 14,
celldm(1) = 8.07000000E+000,
celldm(2) = 1.00000000E+000,
celldm(3) = 1.00000000E+000,
celldm(4) = 0.00000000E+000,
celldm(5) = 0.00000000E+000,
celldm(6) = 0.00000000E+000,
nat = 32,
ntyp = 1,
ecutwfc = 35,
ecutrho = 208,
occupations = 'smearing',
smearing = 'mv',
degauss = 5.00000007E-002,
/
&ELECTRONS
diagonalization = 'david',
mixing_mode = plain,
mixing_beta = 6.99999988E-001,
conv_thr = 1.00000000E-007,
/
&IONS
ion_dynamics = 'bfgs',
/
&CELL
cell_dynamics = 'bfgs',
press = 0.00000000E+000,
cell_factor = 2.00000000E+000,
/
ATOMIC_SPECIES
Al  2.69815390E+001  Al.pbe-n-kjpaw_psl.0.1.UPF
ATOMIC_POSITIONS crystal
Al  4.96835686E-003  3.97767962E-005  7.45156333E-004
Al  2.51988711E-001  2.45160667E-001  -8.40390982E-004
Al  2.48912856E-001  -1.02859652E-003  2.47184372E-001
Al  5.44290977E-004  2.54940978E-001  2.49215890E-001
Al  -1.13894694E-004  1.23814179E-004  4.99965534E-001
Al  2.54149594E-001  2.49551220E-001  5.01899395E-001
Al  2.54597604E-001  -5.55410780E-004  7.54590456E-001
Al  -3.17085375E-003  2.52654943E-001  7.49830871E-001
Al  2.81514105E-003  4.98278344E-001  -1.29667227E-003
Al  2.52626059E-001  7.49334947E-001  2.90031211E-004
Al  2.54982995E-001  5.01463023E-001  2.49963164E-001
Al  2.05708792E-003  7.51338570E-001  2.45315362E-001
Al  4.27248259E-004  4.95028015E-001  4.99217670E-001
Al  2.50187803E-001  7.52253815E-001  4.96492814E-001
Al  2.52628154E-001  4.96611700E-001  7.48458735E-001
Al  3.01242503E-003  7.50542615E-001  7.50055183E-001
Al  5.02880732E-001  -1.05784273E-004  -4.63673486E-005
Al  7.45338178E-001  2.49983259E-001  4.05510801E-005
Al  7.52662050E-001  -3.46338125E-003  2.51634762E-001
Al  4.95439791E-001  2.49843505E-001  2.49963652E-001
Al  5.01303689E-001  -4.43104749E-003  5.00044840E-001
Al  7.49466285E-001  2.54978331E-001  4.99217473E-001
Al  7.49981435E-001  3.03496291E-003  7.45121210E-001
Al  5.01937742E-001  2.53271505E-001  7.49413760E-001
Al  4.95089735E-001  5.00753069E-001  3.01246854E-003
Al  7.45862638E-001  7.47283530E-001  4.29177635E-004
Al  7.49983246E-001  5.00377091E-001  2.50259227E-001
Al  5.00036583E-001  7.52771538E-001  2.45067410E-001
Al  5.00017413E-001  4.98103478E-001  5.01371604E-001
Al  7.51307226E-001  7.49562146E-001  5.00017530E-001
Al  7.49363563E-001  5.01705846E-001  7.51807706E-001
Al  5.02397701E-001  7.49613047E-001  7.49981971E-001
K_POINTS automatic
2 2 2 1 1 1
