&CONTROL
restart_mode = 'from_scratch',
calculation = 'scf',
outdir = '/gpfs/bb/bxp912/scratch',
pseudo_dir = '/gpfs/bb/bxp912/pseudopotentials',
prefix = '3.00000000E-001',
etot_conv_thr = 1.00000000E-007,
forc_conv_thr = 1.00000000E-007,
nstep = 200,
tprnfor = .true.,
tstress = .true.,
disk_io = 'low',
/
&SYSTEM
ibrav = 14,
celldm(1) = 3.05001797E+001,
celldm(2) = 1.00000000E+000,
celldm(3) = 1.00000000E+000,
celldm(4) = 0.00000000E+000,
celldm(5) = 0.00000000E+000,
celldm(6) = 0.00000000E+000,
nat = 256,
ntyp = 1,
ecutwfc = 35,
ecutrho = 208,
occupations = 'smearing',
smearing = 'mv',
degauss = 5.00000007E-002,
/
&ELECTRONS
diagonalization = 'david',
mixing_mode = plain,
mixing_beta = 6.99999988E-001,
conv_thr = 1.00000000E-007,
/
&IONS
ion_dynamics = 'bfgs',
/
&CELL
cell_dynamics = 'bfgs',
press = 0.00000000E+000,
cell_factor = 2.00000000E+000,
/
ATOMIC_SPECIES
Al  2.69815390E+001  Al.pbe-n-kjpaw_psl.0.1.UPF
ATOMIC_POSITIONS crystal
Al  -7.86042247E-005  -7.01925565E-005  2.22743828E-005
Al  1.24275626E-001  1.27468218E-001  -2.21699221E-003
Al  1.25330152E-001  -2.29084591E-003  1.25620691E-001
Al  -2.44210260E-003  1.24981457E-001  1.24961670E-001
Al  -1.23053270E-003  -1.70150810E-003  2.52297677E-001
Al  1.25069298E-001  1.26254267E-001  2.50033112E-001
Al  1.25893533E-001  -1.88098869E-003  3.74218671E-001
Al  -1.81117532E-005  1.25008867E-001  3.77471723E-001
Al  1.81364589E-005  -4.37982805E-004  5.02082333E-001
Al  1.26449945E-001  1.23391771E-001  5.02499963E-001
Al  1.26008610E-001  2.47001457E-003  6.23870182E-001
Al  1.07990135E-003  1.24342949E-001  6.26215520E-001
Al  1.07023050E-003  8.75390380E-006  7.52256225E-001
Al  1.27059551E-001  1.25327930E-001  7.52117447E-001
Al  1.27491983E-001  -2.28523653E-003  8.75018699E-001
Al  1.88159562E-005  1.22541136E-001  8.75018110E-001
Al  9.24211239E-004  2.48907295E-001  -2.62519546E-004
Al  1.25009003E-001  3.76673400E-001  -4.59071618E-004
Al  1.24380612E-001  2.48405706E-001  1.26485114E-001
Al  1.22548821E-003  3.74316573E-001  1.25232083E-001
Al  -6.00086367E-005  2.48813329E-001  2.51444698E-001
Al  1.23791647E-001  3.76887187E-001  2.52480989E-001
Al  1.23436134E-001  2.49752025E-001  3.73133235E-001
Al  1.74629179E-003  3.74977745E-001  3.77152961E-001
Al  6.04420091E-004  2.49981887E-001  4.98077568E-001
Al  1.25313549E-001  3.75377904E-001  5.00236806E-001
Al  1.24711861E-001  2.48487880E-001  6.27165272E-001
Al  -1.06620445E-003  3.75543624E-001  6.25055218E-001
Al  2.00321494E-003  2.47753543E-001  7.51984549E-001
Al  1.23526391E-001  3.76916651E-001  7.49981834E-001
Al  1.25152893E-001  2.50212489E-001  8.74860869E-001
Al  1.17718375E-003  3.74972204E-001  8.75008894E-001
Al  -1.38458501E-004  5.00021977E-001  -1.83706929E-003
Al  1.25477791E-001  6.22807439E-001  -2.30557866E-003
Al  1.25008459E-001  5.02450579E-001  1.24692030E-001
Al  -1.61193086E-003  6.26916670E-001  1.25008860E-001
Al  -3.32968800E-005  5.00024973E-001  2.50650716E-001
Al  1.27444518E-001  6.22642783E-001  2.51653734E-001
Al  1.23008038E-001  4.97507209E-001  3.77363510E-001
Al  5.06182578E-005  6.25314560E-001  3.77498722E-001
Al  -1.58077257E-003  5.01043167E-001  5.00147900E-001
Al  1.25281232E-001  6.23338956E-001  5.00410228E-001
Al  1.24876481E-001  5.00133461E-001  6.27361887E-001
Al  -2.26882421E-003  6.24705303E-001  6.27404590E-001
Al  1.59230117E-003  4.99781058E-001  7.49942247E-001
Al  1.27418209E-001  6.25323836E-001  7.50410821E-001
Al  1.25191352E-001  4.99908166E-001  8.75081825E-001
Al  -2.14703408E-003  6.26997698E-001  8.74223756E-001
Al  -1.84593611E-005  7.52456369E-001  3.67455187E-005
Al  1.22867325E-001  8.75358527E-001  3.35470564E-005
Al  1.25175216E-001  7.50545526E-001  1.23562825E-001
Al  -2.70775066E-004  8.75725914E-001  1.25335214E-001
Al  1.20833661E-004  7.50564805E-001  2.50166550E-001
Al  1.23938638E-001  8.75525984E-001  2.49099490E-001
Al  1.24881072E-001  7.47584653E-001  3.73339704E-001
Al  1.08243951E-004  8.75182027E-001  3.77476529E-001
Al  1.79803386E-003  7.49956187E-001  5.00319009E-001
Al  1.24648400E-001  8.72930347E-001  4.99089322E-001
Al  1.27078475E-001  7.49556046E-001  6.23992682E-001
Al  2.22554353E-003  8.74869710E-001  6.24135685E-001
Al  -1.87880222E-005  7.50726046E-001  7.50372916E-001
Al  1.24641591E-001  8.74933931E-001  7.49127841E-001
Al  1.27036329E-001  7.49406297E-001  8.75316708E-001
Al  -9.32300224E-004  8.72594910E-001  8.72503600E-001
Al  2.52383954E-001  -1.78981459E-003  -4.90343785E-004
Al  3.73444086E-001  1.25454439E-001  -3.42348914E-004
Al  3.74928639E-001  8.49181257E-004  1.25091433E-001
Al  2.52130193E-001  1.23373489E-001  1.24981741E-001
Al  2.50018612E-001  -1.25616587E-004  2.50551548E-001
Al  3.74635391E-001  1.24793880E-001  2.49814121E-001
Al  3.75018247E-001  2.10724929E-003  3.72663592E-001
Al  2.52350016E-001  1.25175691E-001  3.73802077E-001
Al  2.50206121E-001  -2.03047745E-003  4.99943776E-001
Al  3.75156805E-001  1.24592352E-001  4.97693569E-001
Al  3.74991529E-001  -1.54963127E-003  6.23520680E-001
Al  2.47904597E-001  1.23044371E-001  6.24963095E-001
Al  2.50508673E-001  1.99020627E-005  7.47542930E-001
Al  3.75818064E-001  1.26195027E-001  7.52223069E-001
Al  3.75368053E-001  2.41207404E-003  8.73492333E-001
Al  2.50022924E-001  1.22697288E-001  8.74970232E-001
Al  2.50846299E-001  2.50022184E-001  -9.59986103E-004
Al  3.76057588E-001  3.72593837E-001  1.11903512E-003
Al  3.75672041E-001  2.49964288E-001  1.24890693E-001
Al  2.48043997E-001  3.74192387E-001  1.25071614E-001
Al  2.50043011E-001  2.50787090E-001  2.49990912E-001
Al  3.75062437E-001  3.75094941E-001  2.49959138E-001
Al  3.73152690E-001  2.49028945E-001  3.73732013E-001
Al  2.50044740E-001  3.77497575E-001  3.72522120E-001
Al  2.47746167E-001  2.48349696E-001  4.97500049E-001
Al  3.73815225E-001  3.74037652E-001  5.01477901E-001
Al  3.72589390E-001  2.50331605E-001  6.26476078E-001
Al  2.48128817E-001  3.76207509E-001  6.27401961E-001
Al  2.52241894E-001  2.52173853E-001  7.50147596E-001
Al  3.74991366E-001  3.75253287E-001  7.47500010E-001
Al  3.77098568E-001  2.49981837E-001  8.75035000E-001
Al  2.51893050E-001  3.74605027E-001  8.72655850E-001
Al  2.49840090E-001  4.98951788E-001  3.12752706E-004
Al  3.73473984E-001  6.27253407E-001  -2.48992386E-003
Al  3.76429477E-001  5.00125310E-001  1.25412140E-001
Al  2.49990843E-001  6.27149573E-001  1.26312200E-001
Al  2.48251135E-001  5.00339225E-001  2.51284234E-001
Al  3.75103510E-001  6.25008762E-001  2.49250106E-001
Al  3.74695383E-001  4.99960789E-001  3.74707034E-001
Al  2.49932198E-001  6.24904214E-001  3.72598253E-001
Al  2.50178473E-001  4.99981619E-001  5.01907879E-001
Al  3.72510234E-001  6.25223877E-001  4.98168631E-001
Al  3.77414659E-001  4.99991296E-001  6.27499796E-001
Al  2.50253528E-001  6.25349351E-001  6.25018178E-001
Al  2.47587942E-001  4.99501817E-001  7.50610336E-001
Al  3.73865101E-001  6.23675484E-001  7.47808697E-001
Al  3.77076897E-001  5.00039402E-001  8.75888001E-001
Al  2.49991593E-001  6.24899939E-001  8.73246807E-001
Al  2.50170020E-001  7.49869513E-001  1.82223651E-004
Al  3.72894660E-001  8.74934201E-001  -1.08105318E-004
Al  3.75008998E-001  7.50200357E-001  1.27499131E-001
Al  2.50038293E-001  8.72880427E-001  1.25420942E-001
Al  2.49115729E-001  7.49556595E-001  2.49428564E-001
Al  3.74623934E-001  8.74938278E-001  2.49889239E-001
Al  3.75141916E-001  7.51316969E-001  3.75037377E-001
Al  2.49912295E-001  8.74958616E-001  3.74839805E-001
Al  2.50112277E-001  7.50039036E-001  4.99283347E-001
Al  3.73578590E-001  8.75323452E-001  4.98360781E-001
Al  3.77080976E-001  7.48609137E-001  6.24608540E-001
Al  2.49936429E-001  8.73138260E-001  6.24760022E-001
Al  2.50101809E-001  7.51642458E-001  7.49408755E-001
Al  3.75770535E-001  8.73243470E-001  7.50308146E-001
Al  3.76279888E-001  7.51745773E-001  8.72792942E-001
Al  2.49721421E-001  8.75660653E-001  8.76202842E-001
Al  5.00023469E-001  8.41932732E-006  1.82301797E-005
Al  6.23694855E-001  1.25084406E-001  -8.90223907E-005
Al  6.25681920E-001  4.88383225E-004  1.24580146E-001
Al  5.02477328E-001  1.24991355E-001  1.23997284E-001
Al  5.00105250E-001  1.29094333E-004  2.50871398E-001
Al  6.27294721E-001  1.25047020E-001  2.47546228E-001
Al  6.27237688E-001  -1.89882301E-005  3.74357184E-001
Al  5.01682258E-001  1.24757962E-001  3.75018568E-001
Al  5.00018186E-001  -1.61265516E-003  4.98828468E-001
Al  6.26117056E-001  1.24872066E-001  5.00955851E-001
Al  6.22650901E-001  2.46486263E-003  6.25019743E-001
Al  5.00578719E-001  1.26416255E-001  6.25579435E-001
Al  5.00019934E-001  6.15129111E-004  7.49689000E-001
Al  6.27266752E-001  1.24945434E-001  7.48191154E-001
Al  6.24943104E-001  -1.96754201E-005  8.74953056E-001
Al  4.99980963E-001  1.22874865E-001  8.74991026E-001
Al  4.97952305E-001  2.47566488E-001  -4.63821795E-005
Al  6.25093570E-001  3.72836755E-001  -2.70945706E-005
Al  6.25950786E-001  2.52476820E-001  1.25008372E-001
Al  5.00218518E-001  3.76934820E-001  1.25018405E-001
Al  5.00643071E-001  2.52202098E-001  2.50066753E-001
Al  6.25064067E-001  3.74894893E-001  2.50303815E-001
Al  6.25804712E-001  2.47833711E-001  3.75141903E-001
Al  4.99991622E-001  3.76944183E-001  3.74194202E-001
Al  4.99391698E-001  2.49568123E-001  5.01520604E-001
Al  6.24784625E-001  3.75008402E-001  4.97525523E-001
Al  6.24276812E-001  2.50033634E-001  6.26515822E-001
Al  4.99980975E-001  3.75161238E-001  6.24796218E-001
Al  5.00207629E-001  2.50395913E-001  7.52182208E-001
Al  6.25046307E-001  3.75463587E-001  7.47517093E-001
Al  6.22536647E-001  2.47723131E-001  8.75455082E-001
Al  5.00008376E-001  3.77493509E-001  8.75982255E-001
Al  5.01599967E-001  5.00116036E-001  2.19496859E-003
Al  6.22609504E-001  6.24878358E-001  1.81489969E-003
Al  6.27284511E-001  5.00039044E-001  1.27480082E-001
Al  5.01341382E-001  6.23698189E-001  1.25008379E-001
Al  4.98228289E-001  4.99771945E-001  2.51639272E-001
Al  6.24991623E-001  6.25025881E-001  2.49981230E-001
Al  6.24604338E-001  5.02362345E-001  3.73250683E-001
Al  5.00019621E-001  6.25182993E-001  3.75046338E-001
Al  5.00229895E-001  5.00569277E-001  5.02420080E-001
Al  6.25602683E-001  6.27437440E-001  4.99855600E-001
Al  6.25611825E-001  4.98109037E-001  6.25708515E-001
Al  4.99980319E-001  6.25840811E-001  6.25823034E-001
Al  4.97998837E-001  4.99502817E-001  7.50496047E-001
Al  6.25313521E-001  6.23560919E-001  7.49850199E-001
Al  6.27174370E-001  4.99916838E-001  8.75412718E-001
Al  5.02123630E-001  6.24187145E-001  8.77482260E-001
Al  4.99990889E-001  7.49222484E-001  1.36020206E-003
Al  6.23983380E-001  8.75074806E-001  -1.07853127E-004
Al  6.22731003E-001  7.51246977E-001  1.24905847E-001
Al  5.02451740E-001  8.74845757E-001  1.25065308E-001
Al  5.01904277E-001  7.50018163E-001  2.49773529E-001
Al  6.24533095E-001  8.74803813E-001  2.50025806E-001
Al  6.24889857E-001  7.51854803E-001  3.76633236E-001
Al  5.00063584E-001  8.73511781E-001  3.74921134E-001
Al  5.01263530E-001  7.50906212E-001  4.98101631E-001
Al  6.22789133E-001  8.72892749E-001  5.00136894E-001
Al  6.22773228E-001  7.49977035E-001  6.27193607E-001
Al  5.02345835E-001  8.75018158E-001  6.24879899E-001
Al  4.97713579E-001  7.48885876E-001  7.50018157E-001
Al  6.26548023E-001  8.73096377E-001  7.51562484E-001
Al  6.24052787E-001  7.50719705E-001  8.75031847E-001
Al  5.00025079E-001  8.74857210E-001  8.75502870E-001
Al  7.49763279E-001  6.57911529E-004  2.11267409E-003
Al  8.75462268E-001  1.26508559E-001  3.56754679E-005
Al  8.74930932E-001  -1.44582752E-003  1.25443274E-001
Al  7.49961663E-001  1.22507798E-001  1.24934148E-001
Al  7.50358381E-001  9.14619484E-006  2.50085460E-001
Al  8.74959475E-001  1.25068500E-001  2.47611283E-001
Al  8.76884152E-001  -7.56962653E-004  3.74962773E-001
Al  7.50008797E-001  1.25693285E-001  3.75093843E-001
Al  7.49672006E-001  -8.71081461E-006  4.97898464E-001
Al  8.75138665E-001  1.25283807E-001  4.99696687E-001
Al  8.77454819E-001  -1.44920826E-003  6.22709567E-001
Al  7.48098446E-001  1.24828590E-001  6.22501632E-001
Al  7.49477032E-001  1.98836503E-003  7.51531528E-001
Al  8.75082437E-001  1.24667383E-001  7.49980990E-001
Al  8.74946317E-001  -2.16825795E-003  8.75019584E-001
Al  7.52479269E-001  1.23874228E-001  8.74980414E-001
Al  7.51926336E-001  2.47673399E-001  -6.43009005E-004
Al  8.74981838E-001  3.72708503E-001  -5.32664098E-004
Al  8.74386989E-001  2.49955222E-001  1.26084661E-001
Al  7.49613084E-001  3.76189565E-001  1.25018681E-001
Al  7.48117409E-001  2.49193196E-001  2.50236185E-001
Al  8.75026042E-001  3.76681985E-001  2.49946407E-001
Al  8.76142275E-001  2.47885040E-001  3.75041614E-001
Al  7.49063127E-001  3.76404835E-001  3.74880717E-001
Al  7.52302576E-001  2.48936582E-001  4.99953161E-001
Al  8.75169054E-001  3.74720092E-001  4.99981676E-001
Al  8.74935818E-001  2.47692667E-001  6.26195413E-001
Al  7.50418873E-001  3.74932394E-001  6.22619081E-001
Al  7.49821014E-001  2.49991258E-001  7.49861463E-001
Al  8.72727679E-001  3.72621711E-001  7.52034436E-001
Al  8.74354131E-001  2.49755810E-001  8.73604635E-001
Al  7.49941203E-001  3.74801790E-001  8.74803427E-001
Al  7.50025093E-001  5.00046385E-001  1.03576131E-003
Al  8.74861314E-001  6.22505873E-001  1.37635285E-003
Al  8.75018221E-001  4.99414584E-001  1.25020955E-001
Al  7.49137381E-001  6.27149095E-001  1.25021001E-001
Al  7.50021496E-001  5.00181370E-001  2.49567977E-001
Al  8.76492999E-001  6.24208089E-001  2.50755817E-001
Al  8.75813229E-001  4.97604703E-001  3.75071341E-001
Al  7.52118901E-001  6.22529148E-001  3.74364995E-001
Al  7.49036269E-001  5.01882708E-001  4.98902900E-001
Al  8.74800669E-001  6.23510686E-001  5.02322489E-001
Al  8.74970229E-001  5.02270360E-001  6.24195404E-001
Al  7.50008520E-001  6.25124801E-001  6.25094023E-001
Al  7.50458190E-001  4.98735078E-001  7.49981385E-001
Al  8.77480161E-001  6.22515226E-001  7.51418504E-001
Al  8.74980688E-001  5.00396430E-001  8.72595918E-001
Al  7.49524380E-001  6.25289986E-001  8.73435913E-001
Al  7.47861331E-001  7.51261750E-001  2.38195348E-003
Al  8.76729468E-001  8.76252087E-001  -5.17735940E-004
Al  8.76874989E-001  7.49955908E-001  1.25067885E-001
Al  7.47502681E-001  8.77498520E-001  1.24939996E-001
Al  7.52302862E-001  7.50421503E-001  2.52274036E-001
Al  8.74587409E-001  8.77281452E-001  2.52217414E-001
Al  8.75132405E-001  7.49368332E-001  3.73469843E-001
Al  7.49981865E-001  8.72513092E-001  3.75224304E-001
Al  7.49076005E-001  7.52118397E-001  5.00781062E-001
Al  8.75262020E-001  8.73795587E-001  4.98911872E-001
Al  8.73135096E-001  7.50552750E-001  6.27307731E-001
Al  7.49991016E-001  8.74568054E-001  6.24875556E-001
Al  7.50306413E-001  7.49839509E-001  7.47500410E-001
Al  8.75990413E-001  8.74981893E-001  7.51111239E-001
Al  8.75119493E-001  7.48221341E-001  8.77444808E-001
Al  7.49937050E-001  8.74311215E-001  8.74120967E-001
K_POINTS automatic
2 2 2 1 1 1
