&CONTROL
restart_mode = 'from_scratch',
calculation = 'scf',
outdir = '/gpfs/bb/bxp912/scratch',
pseudo_dir = '/gpfs/bb/bxp912/pseudopotentials',
prefix = '1.44000000E-001',
etot_conv_thr = 1.00000000E-007,
forc_conv_thr = 1.00000000E-007,
nstep = 200,
tprnfor = .true.,
tstress = .true.,
disk_io = 'low',
/
&SYSTEM
ibrav = 14,
celldm(1) = 8.07000000E+000,
celldm(2) = 1.00000000E+000,
celldm(3) = 1.00000000E+000,
celldm(4) = 0.00000000E+000,
celldm(5) = 0.00000000E+000,
celldm(6) = 0.00000000E+000,
nat = 32,
ntyp = 1,
ecutwfc = 35,
ecutrho = 208,
occupations = 'smearing',
smearing = 'mv',
degauss = 5.00000007E-002,
/
&ELECTRONS
diagonalization = 'david',
mixing_mode = plain,
mixing_beta = 6.99999988E-001,
conv_thr = 1.00000000E-007,
/
&IONS
ion_dynamics = 'bfgs',
/
&CELL
cell_dynamics = 'bfgs',
press = 0.00000000E+000,
cell_factor = 2.00000000E+000,
/
ATOMIC_SPECIES
Al  2.69815390E+001  Al.pbe-n-kjpaw_psl.0.1.UPF
ATOMIC_POSITIONS crystal
Al  -3.90121609E-005  -1.09031465E-003  -4.10492583E-003
Al  2.45388898E-001  2.49942147E-001  -2.31945221E-003
Al  2.47774675E-001  -6.57325526E-004  2.49729722E-001
Al  -7.02773065E-004  2.50107427E-001  2.54947076E-001
Al  3.82561085E-003  -5.58168702E-005  4.95034693E-001
Al  2.49813250E-001  2.51145997E-001  5.01107331E-001
Al  2.49334496E-001  1.02440569E-003  7.54425653E-001
Al  4.97303552E-003  2.49909240E-001  7.48424108E-001
Al  3.29672746E-003  4.98987937E-001  3.93980751E-003
Al  2.48705235E-001  7.50016741E-001  -4.42651088E-003
Al  2.54751975E-001  4.97474856E-001  2.49447257E-001
Al  3.62992220E-004  7.50183093E-001  2.50902014E-001
Al  1.24968091E-004  5.00746305E-001  5.04986096E-001
Al  2.49281205E-001  7.50036270E-001  4.97417031E-001
Al  2.49747788E-001  5.02537643E-001  7.50216495E-001
Al  3.69609520E-003  7.54973603E-001  7.50017631E-001
Al  4.99595353E-001  2.46165744E-004  -3.95744942E-005
Al  7.51535742E-001  2.49842234E-001  4.40013574E-003
Al  7.50369888E-001  2.81399650E-004  2.48601661E-001
Al  5.04865368E-001  2.50036765E-001  2.50401048E-001
Al  4.95010174E-001  -1.83375800E-005  4.99777219E-001
Al  7.52149157E-001  2.54997660E-001  4.95839048E-001
Al  7.50046232E-001  -3.77695127E-004  7.52879870E-001
Al  5.03619506E-001  2.47704613E-001  7.45114829E-001
Al  4.99982438E-001  4.98677930E-001  -1.69820738E-003
Al  7.49934053E-001  7.45590331E-001  -9.74627741E-005
Al  7.50082115E-001  5.00634960E-001  2.47033568E-001
Al  4.99772259E-001  7.48275391E-001  2.50807868E-001
Al  4.95209758E-001  5.04500954E-001  5.00635765E-001
Al  7.53103115E-001  7.50053204E-001  5.04855922E-001
Al  7.52585994E-001  4.99962384E-001  7.45158603E-001
Al  5.04494685E-001  7.54884710E-001  7.49445879E-001
K_POINTS automatic
2 2 2 1 1 1
