&CONTROL
restart_mode = 'from_scratch',
calculation = 'scf',
outdir = '/gpfs/bb/bxp912/scratch',
pseudo_dir = '/gpfs/bb/bxp912/pseudopotentials',
prefix = '1.44000000E-001',
etot_conv_thr = 1.00000000E-007,
forc_conv_thr = 1.00000000E-007,
nstep = 200,
tprnfor = .true.,
tstress = .true.,
disk_io = 'low',
/
&SYSTEM
ibrav = 14,
celldm(1) = 8.07000000E+000,
celldm(2) = 1.00000000E+000,
celldm(3) = 1.00000000E+000,
celldm(4) = 0.00000000E+000,
celldm(5) = 0.00000000E+000,
celldm(6) = 0.00000000E+000,
nat = 32,
ntyp = 1,
ecutwfc = 35,
ecutrho = 208,
occupations = 'smearing',
smearing = 'mv',
degauss = 5.00000007E-002,
/
&ELECTRONS
diagonalization = 'david',
mixing_mode = plain,
mixing_beta = 6.99999988E-001,
conv_thr = 1.00000000E-007,
/
&IONS
ion_dynamics = 'bfgs',
/
&CELL
cell_dynamics = 'bfgs',
press = 0.00000000E+000,
cell_factor = 2.00000000E+000,
/
ATOMIC_SPECIES
Al  2.69815390E+001  Al.pbe-n-kjpaw_psl.0.1.UPF
ATOMIC_POSITIONS crystal
Al  -5.00615529E-004  -5.09899785E-004  2.30833492E-003
Al  2.50453608E-001  2.51023006E-001  -9.64100548E-004
Al  2.54853118E-001  4.22885956E-003  2.54076579E-001
Al  5.06683343E-005  2.49484223E-001  2.50203302E-001
Al  5.66237235E-004  -2.68880611E-004  4.97673593E-001
Al  2.53198515E-001  2.50107091E-001  5.03470921E-001
Al  2.54137179E-001  -1.43265269E-003  7.45011216E-001
Al  4.23222078E-003  2.45916218E-001  7.50236049E-001
Al  -4.57352780E-003  4.98162381E-001  1.65303676E-004
Al  2.49954935E-001  7.51320554E-001  -2.38707556E-004
Al  2.49963421E-001  4.95001881E-001  2.50036309E-001
Al  -4.24008516E-003  7.49963144E-001  2.48945752E-001
Al  1.82055626E-003  5.00201830E-001  5.03302719E-001
Al  2.45095005E-001  7.45102925E-001  5.01800899E-001
Al  2.50207857E-001  5.03495638E-001  7.48472788E-001
Al  -4.89318135E-003  7.47713120E-001  7.50599589E-001
Al  5.04416648E-001  1.29034448E-003  4.87702051E-003
Al  7.53554131E-001  2.49426079E-001  -1.06671188E-004
Al  7.54509492E-001  -4.38872280E-003  2.49955810E-001
Al  4.98711421E-001  2.50049442E-001  2.45507262E-001
Al  5.04714076E-001  -3.75689144E-005  5.00543627E-001
Al  7.49961904E-001  2.46539054E-001  5.00227554E-001
Al  7.47172997E-001  1.70809949E-005  7.49876715E-001
Al  5.00635476E-001  2.50057271E-001  7.50084266E-001
Al  5.00300056E-001  5.00036721E-001  1.26291764E-003
Al  7.50059300E-001  7.45001718E-001  -8.85546054E-004
Al  7.49822490E-001  4.98483654E-001  2.49214900E-001
Al  5.04373106E-001  7.45345201E-001  2.49815496E-001
Al  4.98430497E-001  4.95005721E-001  5.00108890E-001
Al  7.50036753E-001  7.52679990E-001  5.03726615E-001
Al  7.49846388E-001  5.00039251E-001  7.54142543E-001
Al  4.96422747E-001  7.49618623E-001  7.53411684E-001
K_POINTS automatic
2 2 2 1 1 1
