&CONTROL
restart_mode = 'from_scratch',
calculation = 'scf',
outdir = '/gpfs/bb/bxp912/scratch',
pseudo_dir = '/gpfs/bb/bxp912/pseudopotentials',
prefix = '1.44000000E-001',
etot_conv_thr = 1.00000000E-007,
forc_conv_thr = 1.00000000E-007,
nstep = 200,
tprnfor = .true.,
tstress = .true.,
disk_io = 'low',
/
&SYSTEM
ibrav = 14,
celldm(1) = 8.07000000E+000,
celldm(2) = 1.00000000E+000,
celldm(3) = 1.00000000E+000,
celldm(4) = 0.00000000E+000,
celldm(5) = 0.00000000E+000,
celldm(6) = 0.00000000E+000,
nat = 32,
ntyp = 1,
ecutwfc = 35,
ecutrho = 208,
occupations = 'smearing',
smearing = 'mv',
degauss = 5.00000007E-002,
/
&ELECTRONS
diagonalization = 'david',
mixing_mode = plain,
mixing_beta = 6.99999988E-001,
conv_thr = 1.00000000E-007,
/
&IONS
ion_dynamics = 'bfgs',
/
&CELL
cell_dynamics = 'bfgs',
press = 0.00000000E+000,
cell_factor = 2.00000000E+000,
/
ATOMIC_SPECIES
Al  2.69815390E+001  Al.pbe-n-kjpaw_psl.0.1.UPF
ATOMIC_POSITIONS crystal
Al  2.99722571E-003  3.62525757E-005  3.47446096E-003
Al  2.49926300E-001  2.49739236E-001  4.72766129E-003
Al  2.50361473E-001  4.43699754E-003  2.50036549E-001
Al  4.92649176E-003  2.50633207E-001  2.48954857E-001
Al  1.85580791E-005  7.14209277E-004  4.98776137E-001
Al  2.45661068E-001  2.53654779E-001  4.99960738E-001
Al  2.48344705E-001  5.30190289E-004  7.54971775E-001
Al  -4.99261898E-003  2.49659514E-001  7.49963604E-001
Al  -3.55800003E-003  5.00703219E-001  -1.05723901E-003
Al  2.50098785E-001  7.53306343E-001  5.80220650E-005
Al  2.49934695E-001  5.01757445E-001  2.46665889E-001
Al  3.22465380E-003  7.52853948E-001  2.49963012E-001
Al  9.60119865E-005  5.04662008E-001  4.95100191E-001
Al  2.50199425E-001  7.50039551E-001  5.03984257E-001
Al  2.50911338E-001  4.99432518E-001  7.54964931E-001
Al  7.83972539E-004  7.50948759E-001  7.47663380E-001
Al  5.01737965E-001  2.13471915E-003  3.12827288E-003
Al  7.54976387E-001  2.50395940E-001  -3.22190790E-004
Al  7.47400002E-001  -2.90932731E-003  2.50036882E-001
Al  5.00043397E-001  2.50717465E-001  2.45032594E-001
Al  4.95441984E-001  3.78061593E-003  5.00156716E-001
Al  7.53641810E-001  2.49451817E-001  5.04594247E-001
Al  7.54420065E-001  -2.23261698E-004  7.52633090E-001
Al  5.00917667E-001  2.46590550E-001  7.49831273E-001
Al  5.01516708E-001  5.02776214E-001  -2.43210500E-003
Al  7.51490076E-001  7.49983257E-001  1.18626300E-004
Al  7.50261065E-001  5.00048277E-001  2.49964093E-001
Al  5.03828067E-001  7.49607720E-001  2.49669455E-001
Al  4.96391857E-001  5.02472371E-001  4.99887580E-001
Al  7.45570281E-001  7.50036218E-001  5.01739986E-001
Al  7.45074289E-001  5.01482266E-001  7.48567740E-001
Al  5.04820442E-001  7.49816590E-001  7.49280650E-001
K_POINTS automatic
2 2 2 1 1 1
