&CONTROL
restart_mode = 'from_scratch',
calculation = 'scf',
outdir = '/gpfs/bb/bxp912/scratch',
pseudo_dir = '/gpfs/bb/bxp912/pseudopotentials',
prefix = '1.44000000E-001',
etot_conv_thr = 1.00000000E-007,
forc_conv_thr = 1.00000000E-007,
nstep = 200,
tprnfor = .true.,
tstress = .true.,
disk_io = 'low',
/
&SYSTEM
ibrav = 14,
celldm(1) = 8.07000000E+000,
celldm(2) = 1.00000000E+000,
celldm(3) = 1.00000000E+000,
celldm(4) = 0.00000000E+000,
celldm(5) = 0.00000000E+000,
celldm(6) = 0.00000000E+000,
nat = 32,
ntyp = 1,
ecutwfc = 35,
ecutrho = 208,
occupations = 'smearing',
smearing = 'mv',
degauss = 5.00000007E-002,
/
&ELECTRONS
diagonalization = 'david',
mixing_mode = plain,
mixing_beta = 6.99999988E-001,
conv_thr = 1.00000000E-007,
/
&IONS
ion_dynamics = 'bfgs',
/
&CELL
cell_dynamics = 'bfgs',
press = 0.00000000E+000,
cell_factor = 2.00000000E+000,
/
ATOMIC_SPECIES
Al  2.69815390E+001  Al.pbe-n-kjpaw_psl.0.1.UPF
ATOMIC_POSITIONS crystal
Al  1.29877027E-004  -1.04347189E-003  1.67500438E-005
Al  2.49849042E-001  2.50239192E-001  3.83589265E-005
Al  2.47671771E-001  4.50031240E-004  2.45374503E-001
Al  2.12568323E-003  2.47616399E-001  2.48494144E-001
Al  1.58962001E-004  3.18553832E-003  4.98732457E-001
Al  2.50178037E-001  2.50317707E-001  5.04230251E-001
Al  2.50065048E-001  -6.83965649E-004  7.54101044E-001
Al  1.88319356E-005  2.54999834E-001  7.51240940E-001
Al  4.80667888E-003  4.97700852E-001  -2.76867463E-003
Al  2.47554148E-001  7.53620593E-001  1.38903529E-003
Al  2.45102890E-001  5.00034191E-001  2.54124098E-001
Al  -2.98878998E-003  7.49489991E-001  2.51689668E-001
Al  5.89355785E-005  4.99954909E-001  4.98162164E-001
Al  2.50095052E-001  7.47541535E-001  4.96421288E-001
Al  2.53807524E-001  4.98476591E-001  7.49960568E-001
Al  -1.81762818E-003  7.50108485E-001  7.52991040E-001
Al  4.98730393E-001  4.29694517E-003  -3.09627976E-003
Al  7.50257953E-001  2.52056915E-001  1.67446180E-005
Al  7.51916224E-001  1.45682754E-003  2.51004600E-001
Al  5.01281023E-001  2.49783163E-001  2.49980475E-001
Al  4.99765812E-001  -3.62322925E-005  5.00080547E-001
Al  7.53523880E-001  2.46897824E-001  4.95234869E-001
Al  7.52295847E-001  -1.87555602E-005  7.47403924E-001
Al  4.95009626E-001  2.47094261E-001  7.45563216E-001
Al  4.98217819E-001  4.96214997E-001  -5.74988106E-005
Al  7.54879494E-001  7.51346976E-001  4.97027423E-003
Al  7.49962532E-001  5.00117685E-001  2.48572730E-001
Al  4.95694875E-001  7.53656032E-001  2.49689305E-001
Al  5.04641182E-001  5.00017400E-001  4.95000313E-001
Al  7.49963785E-001  7.50036598E-001  5.00047846E-001
Al  7.47407435E-001  4.99962482E-001  7.49643890E-001
Al  5.02878641E-001  7.49954763E-001  7.46217509E-001
K_POINTS automatic
2 2 2 1 1 1
