&CONTROL
restart_mode = 'from_scratch',
calculation = 'scf',
outdir = '/gpfs/bb/bxp912/scratch',
pseudo_dir = '/gpfs/bb/bxp912/pseudopotentials',
prefix = '3.00000000E-001',
etot_conv_thr = 1.00000000E-007,
forc_conv_thr = 1.00000000E-007,
nstep = 200,
tprnfor = .true.,
tstress = .true.,
disk_io = 'low',
/
&SYSTEM
ibrav = 14,
celldm(1) = 3.05001797E+001,
celldm(2) = 1.00000000E+000,
celldm(3) = 1.00000000E+000,
celldm(4) = 0.00000000E+000,
celldm(5) = 0.00000000E+000,
celldm(6) = 0.00000000E+000,
nat = 256,
ntyp = 1,
ecutwfc = 35,
ecutrho = 208,
occupations = 'smearing',
smearing = 'mv',
degauss = 5.00000007E-002,
/
&ELECTRONS
diagonalization = 'david',
mixing_mode = plain,
mixing_beta = 6.99999988E-001,
conv_thr = 1.00000000E-007,
/
&IONS
ion_dynamics = 'bfgs',
/
&CELL
cell_dynamics = 'bfgs',
press = 0.00000000E+000,
cell_factor = 2.00000000E+000,
/
ATOMIC_SPECIES
Al  2.69815390E+001  Al.pbe-n-kjpaw_psl.0.1.UPF
ATOMIC_POSITIONS crystal
Al  1.79704394E-003  1.01383549E-004  -9.54446383E-005
Al  1.26727055E-001  1.25264845E-001  -9.85299454E-005
Al  1.27416432E-001  -8.79326316E-005  1.22577922E-001
Al  -2.94478859E-004  1.25223369E-001  1.24858322E-001
Al  -8.35188444E-005  2.32161526E-003  2.49981170E-001
Al  1.27362490E-001  1.24981882E-001  2.52475064E-001
Al  1.24653732E-001  -1.40816806E-003  3.74611579E-001
Al  -1.43613316E-003  1.23879466E-001  3.74778805E-001
Al  2.71089655E-004  8.50289131E-006  4.99804808E-001
Al  1.25257898E-001  1.25406153E-001  4.97696738E-001
Al  1.25400966E-001  2.29555950E-003  6.24156582E-001
Al  2.22912572E-005  1.25824315E-001  6.23151301E-001
Al  5.34664200E-005  1.87135542E-005  7.47571397E-001
Al  1.27411586E-001  1.24980025E-001  7.49664464E-001
Al  1.24915597E-001  2.30983420E-003  8.74273675E-001
Al  -3.30574330E-004  1.25087700E-001  8.75181781E-001
Al  -2.73604884E-005  2.50297651E-001  1.90544564E-003
Al  1.24936314E-001  3.74980729E-001  1.22308194E-003
Al  1.27195036E-001  2.50668355E-001  1.26226998E-001
Al  -5.65035824E-004  3.76974558E-001  1.25439413E-001
Al  2.24458617E-004  2.51084710E-001  2.48177223E-001
Al  1.23420702E-001  3.77478409E-001  2.49550766E-001
Al  1.27433214E-001  2.49295620E-001  3.74990765E-001
Al  2.49456401E-003  3.77456729E-001  3.76721325E-001
Al  4.86297238E-005  2.49893310E-001  4.98299800E-001
Al  1.25040158E-001  3.75639459E-001  4.99424992E-001
Al  1.25017870E-001  2.49514209E-001  6.24940078E-001
Al  9.41380454E-006  3.74923382E-001  6.24874346E-001
Al  -1.48155434E-003  2.50008572E-001  7.49514267E-001
Al  1.25159301E-001  3.74960063E-001  7.47500219E-001
Al  1.22715719E-001  2.51992268E-001  8.76433139E-001
Al  2.00352142E-003  3.75237066E-001  8.75018164E-001
Al  -9.64269336E-004  5.01202798E-001  1.83682127E-003
Al  1.26029186E-001  6.26206966E-001  9.09340397E-006
Al  1.25008383E-001  4.99916637E-001  1.22750923E-001
Al  1.86071294E-005  6.24849429E-001  1.26935648E-001
Al  1.38994554E-003  5.02333820E-001  2.50163592E-001
Al  1.25814356E-001  6.22527933E-001  2.49793600E-001
Al  1.22545688E-001  4.99724256E-001  3.73831477E-001
Al  1.05995242E-004  6.26019485E-001  3.73410813E-001
Al  -1.23133052E-004  4.98700042E-001  4.99018796E-001
Al  1.24473593E-001  6.27490936E-001  4.99991558E-001
Al  1.23989075E-001  4.99183369E-001  6.25060349E-001
Al  -8.81240787E-004  6.27193780E-001  6.24620567E-001
Al  -2.48823153E-003  5.00234576E-001  7.50065779E-001
Al  1.23816624E-001  6.25008394E-001  7.48058063E-001
Al  1.24928698E-001  4.97622086E-001  8.77421623E-001
Al  -2.13463779E-003  6.23908552E-001  8.74704554E-001
Al  -2.31696071E-003  7.52373635E-001  1.78691641E-003
Al  1.24974374E-001  8.74786561E-001  -1.36048605E-003
Al  1.25050054E-001  7.50761326E-001  1.22545214E-001
Al  -1.13138254E-004  8.74502786E-001  1.24934816E-001
Al  -2.16102081E-004  7.47995728E-001  2.50503950E-001
Al  1.24980435E-001  8.76230713E-001  2.49238771E-001
Al  1.24166427E-001  7.50060880E-001  3.75542459E-001
Al  1.81451519E-005  8.75724298E-001  3.74653560E-001
Al  -1.41795637E-003  7.50032654E-001  5.00008852E-001
Al  1.23837280E-001  8.74932008E-001  5.02220421E-001
Al  1.25894144E-001  7.50263765E-001  6.24793679E-001
Al  -2.01369831E-005  8.74878154E-001  6.24981891E-001
Al  5.63460418E-005  7.51915516E-001  7.50008515E-001
Al  1.27045637E-001  8.74470497E-001  7.50453610E-001
Al  1.26993201E-001  7.48090439E-001  8.75242944E-001
Al  -2.46872994E-003  8.73199480E-001  8.77443973E-001
Al  2.50362066E-001  -9.32067260E-004  1.18550794E-003
Al  3.72663377E-001  1.24223302E-001  7.23873521E-005
Al  3.76829396E-001  1.38303220E-003  1.24471932E-001
Al  2.52026894E-001  1.24910147E-001  1.24432906E-001
Al  2.50057025E-001  1.57664885E-003  2.50023557E-001
Al  3.76552518E-001  1.25008552E-001  2.50161870E-001
Al  3.75342430E-001  2.51976255E-004  3.73995415E-001
Al  2.48962679E-001  1.27165348E-001  3.75099539E-001
Al  2.51671124E-001  2.96702917E-004  5.00053734E-001
Al  3.75409452E-001  1.22581571E-001  4.99397636E-001
Al  3.75933015E-001  8.82538565E-004  6.22546739E-001
Al  2.50209012E-001  1.24199261E-001  6.24672407E-001
Al  2.49971027E-001  2.32887245E-005  7.49121856E-001
Al  3.74916329E-001  1.24981519E-001  7.52164009E-001
Al  3.74978445E-001  1.85995862E-005  8.73287046E-001
Al  2.50060906E-001  1.25019550E-001  8.75199616E-001
Al  2.51477312E-001  2.52146317E-001  5.08580659E-004
Al  3.72500552E-001  3.76777696E-001  5.79231321E-005
Al  3.74991324E-001  2.49911594E-001  1.22883744E-001
Al  2.50697488E-001  3.74782171E-001  1.27479855E-001
Al  2.50533936E-001  2.50070141E-001  2.50316375E-001
Al  3.75269957E-001  3.76343890E-001  2.49427900E-001
Al  3.77495504E-001  2.47500300E-001  3.72501190E-001
Al  2.51757111E-001  3.76361128E-001  3.76226371E-001
Al  2.50018648E-001  2.50019403E-001  5.02493482E-001
Al  3.74935951E-001  3.76890796E-001  4.98407754E-001
Al  3.74697872E-001  2.50019187E-001  6.27463365E-001
Al  2.48024084E-001  3.74794395E-001  6.25008380E-001
Al  2.50362832E-001  2.48128882E-001  7.49895374E-001
Al  3.72648850E-001  3.75211299E-001  7.49824709E-001
Al  3.75713444E-001  2.49932314E-001  8.72593736E-001
Al  2.50386745E-001  3.75026381E-001  8.72744282E-001
Al  2.49954012E-001  5.02339917E-001  2.05400188E-003
Al  3.72588761E-001  6.24904242E-001  -2.44899744E-003
Al  3.74386005E-001  4.99368689E-001  1.22958886E-001
Al  2.49863276E-001  6.24960838E-001  1.25080397E-001
Al  2.49138756E-001  4.99547991E-001  2.50816063E-001
Al  3.74076337E-001  6.27272779E-001  2.47691381E-001
Al  3.75477962E-001  5.01781921E-001  3.76980809E-001
Al  2.50340836E-001  6.25638198E-001  3.74991589E-001
Al  2.50184749E-001  4.98871125E-001  4.99779786E-001
Al  3.75047098E-001  6.22866234E-001  5.02091899E-001
Al  3.75491904E-001  5.00018229E-001  6.22526555E-001
Al  2.50212429E-001  6.26184505E-001  6.26371327E-001
Al  2.50009520E-001  5.00886605E-001  7.50791019E-001
Al  3.75620716E-001  6.22614200E-001  7.49940981E-001
Al  3.75914586E-001  5.00586024E-001  8.74991508E-001
Al  2.50629877E-001  6.26404748E-001  8.75336739E-001
Al  2.52487983E-001  7.49859003E-001  -1.73474238E-003
Al  3.75071888E-001  8.75018133E-001  1.83807886E-004
Al  3.76802481E-001  7.50894761E-001  1.23694355E-001
Al  2.50533148E-001  8.75008531E-001  1.24039967E-001
Al  2.50031693E-001  7.49610046E-001  2.49948990E-001
Al  3.75100154E-001  8.72836898E-001  2.48992653E-001
Al  3.76269986E-001  7.50420993E-001  3.75408014E-001
Al  2.50118437E-001  8.76536290E-001  3.74916606E-001
Al  2.48913905E-001  7.49953979E-001  5.00008972E-001
Al  3.74816900E-001  8.76681035E-001  5.00102138E-001
Al  3.72719375E-001  7.50091241E-001  6.24938358E-001
Al  2.49813183E-001  8.76965418E-001  6.26292202E-001
Al  2.50165477E-001  7.49990921E-001  7.47638695E-001
Al  3.76452077E-001  8.75063299E-001  7.49991623E-001
Al  3.74370716E-001  7.49991398E-001  8.72511935E-001
Al  2.52307105E-001  8.77494859E-001  8.75077674E-001
Al  5.01909676E-001  -1.21925222E-003  1.65673169E-003
Al  6.24432112E-001  1.27015116E-001  -7.56985172E-004
Al  6.22790911E-001  1.74775018E-004  1.25026499E-001
Al  5.00343436E-001  1.24817255E-001  1.24347102E-001
Al  4.99724744E-001  -6.76180995E-004  2.50183461E-001
Al  6.23362317E-001  1.25264608E-001  2.47814243E-001
Al  6.24310796E-001  -2.28932113E-003  3.74971290E-001
Al  4.99979690E-001  1.27155797E-001  3.76725788E-001
Al  5.01311813E-001  1.86475463E-003  4.99801143E-001
Al  6.25019591E-001  1.25026240E-001  4.99991511E-001
Al  6.25567967E-001  2.42106823E-003  6.24290091E-001
Al  5.00008887E-001  1.25032178E-001  6.23491695E-001
Al  5.00008942E-001  -2.33522903E-004  7.49720493E-001
Al  6.22501430E-001  1.23211997E-001  7.50094652E-001
Al  6.24947971E-001  -1.95201948E-003  8.75009111E-001
Al  4.98042543E-001  1.24883301E-001  8.72505524E-001
Al  4.99863179E-001  2.48351354E-001  9.72004299E-006
Al  6.22500098E-001  3.74834692E-001  -2.17425871E-004
Al  6.24933650E-001  2.49981799E-001  1.23043179E-001
Al  5.02408226E-001  3.74491123E-001  1.24734379E-001
Al  5.01035612E-001  2.47965304E-001  2.48447104E-001
Al  6.24980240E-001  3.74573347E-001  2.51742565E-001
Al  6.25323303E-001  2.48659731E-001  3.73353991E-001
Al  4.99010115E-001  3.75008371E-001  3.75821853E-001
Al  4.99624560E-001  2.51136107E-001  5.00017910E-001
Al  6.25373565E-001  3.75531206E-001  5.01065479E-001
Al  6.27433550E-001  2.50081002E-001  6.26573268E-001
Al  4.99991048E-001  3.75101835E-001  6.25163102E-001
Al  5.00009362E-001  2.49089391E-001  7.51458442E-001
Al  6.26408973E-001  3.76973128E-001  7.50034346E-001
Al  6.25008854E-001  2.50240444E-001  8.75343293E-001
Al  5.00643056E-001  3.74470609E-001  8.74342695E-001
Al  5.00144936E-001  4.98943365E-001  8.64784179E-006
Al  6.22524763E-001  6.24812293E-001  1.76602807E-003
Al  6.22637019E-001  4.99964009E-001  1.22501873E-001
Al  4.99653794E-001  6.22518818E-001  1.26826071E-001
Al  4.98891063E-001  4.98422910E-001  2.51244304E-001
Al  6.26293960E-001  6.27047421E-001  2.49258431E-001
Al  6.27492173E-001  5.02223536E-001  3.76446822E-001
Al  4.99748449E-001  6.25301678E-001  3.73920041E-001
Al  5.02238135E-001  5.01506180E-001  5.00018140E-001
Al  6.24954113E-001  6.22814900E-001  5.01352064E-001
Al  6.25424499E-001  5.01711038E-001  6.24307672E-001
Al  5.00176093E-001  6.25038610E-001  6.25082558E-001
Al  4.97511458E-001  4.98856875E-001  7.50018271E-001
Al  6.25342938E-001  6.27228831E-001  7.49082986E-001
Al  6.22949455E-001  4.98260743E-001  8.74745705E-001
Al  4.98312752E-001  6.27083939E-001  8.72774697E-001
Al  5.00036620E-001  7.50438349E-001  1.45143685E-003
Al  6.25018671E-001  8.77464411E-001  -3.16887612E-004
Al  6.25018165E-001  7.49678891E-001  1.25351279E-001
Al  4.98029509E-001  8.74912258E-001  1.25040308E-001
Al  5.00008820E-001  7.48983757E-001  2.49510503E-001
Al  6.26543342E-001  8.75140302E-001  2.50712472E-001
Al  6.24991404E-001  7.47890763E-001  3.75651629E-001
Al  4.99509889E-001  8.76109427E-001  3.72740770E-001
Al  5.00615445E-001  7.48036550E-001  4.97560515E-001
Al  6.24149135E-001  8.72501788E-001  5.00804268E-001
Al  6.25288288E-001  7.52385726E-001  6.25141365E-001
Al  4.99788896E-001  8.72515005E-001  6.22666160E-001
Al  5.00018958E-001  7.50255277E-001  7.49898722E-001
Al  6.25018142E-001  8.75202889E-001  7.51925927E-001
Al  6.23768898E-001  7.50179256E-001  8.74826409E-001
Al  5.00667788E-001  8.74981403E-001  8.74991021E-001
Al  7.51935112E-001  4.73869315E-004  2.49595759E-003
Al  8.72507411E-001  1.23984456E-001  -9.73851442E-006
Al  8.74524083E-001  8.47083685E-006  1.23180940E-001
Al  7.47895209E-001  1.25897494E-001  1.23391389E-001
Al  7.49981288E-001  8.37227410E-006  2.52494178E-001
Al  8.74605793E-001  1.27483698E-001  2.50047416E-001
Al  8.72520386E-001  3.60174692E-004  3.76981802E-001
Al  7.49865560E-001  1.24071038E-001  3.77497807E-001
Al  7.49965828E-001  -1.84507371E-004  5.01173998E-001
Al  8.75571450E-001  1.24646519E-001  4.99223517E-001
Al  8.74931095E-001  9.12702042E-005  6.23984865E-001
Al  7.51758127E-001  1.25162233E-001  6.23855268E-001
Al  7.50456943E-001  -1.24960730E-003  7.50023747E-001
Al  8.76213574E-001  1.26572432E-001  7.52139403E-001
Al  8.75423217E-001  1.07587300E-003  8.76770625E-001
Al  7.47626525E-001  1.22500004E-001  8.73818199E-001
Al  7.50037099E-001  2.49842747E-001  1.85557943E-003
Al  8.74981117E-001  3.75196636E-001  -2.11140129E-004
Al  8.74513001E-001  2.50018855E-001  1.22701033E-001
Al  7.49958596E-001  3.72621156E-001  1.27468883E-001
Al  7.47740231E-001  2.49950351E-001  2.52499040E-001
Al  8.72710823E-001  3.74392493E-001  2.50149566E-001
Al  8.76604803E-001  2.52493247E-001  3.76353771E-001
Al  7.48752704E-001  3.74758214E-001  3.72503014E-001
Al  7.49902146E-001  2.52332594E-001  5.00084077E-001
Al  8.74981574E-001  3.77001978E-001  4.99436967E-001
Al  8.74815167E-001  2.51561480E-001  6.24838535E-001
Al  7.48691176E-001  3.72556076E-001  6.24942153E-001
Al  7.49980536E-001  2.50967088E-001  7.51718532E-001
Al  8.75376963E-001  3.77224061E-001  7.50261210E-001
Al  8.74970751E-001  2.50023519E-001  8.74907446E-001
Al  7.49981340E-001  3.76927478E-001  8.74920155E-001
Al  7.50078720E-001  5.00629794E-001  -2.06224659E-003
Al  8.75630779E-001  6.22567603E-001  4.40425982E-004
Al  8.75651818E-001  5.00212232E-001  1.24981318E-001
Al  7.47822198E-001  6.22784912E-001  1.23131040E-001
Al  7.49544148E-001  4.99906728E-001  2.50841710E-001
Al  8.73896903E-001  6.25136427E-001  2.52498076E-001
Al  8.75402077E-001  4.99603121E-001  3.77201319E-001
Al  7.50999321E-001  6.24781367E-001  3.74219644E-001
Al  7.51131889E-001  4.97565211E-001  5.02010875E-001
Al  8.77096838E-001  6.26947082E-001  5.00237745E-001
Al  8.76918065E-001  4.99403031E-001  6.24747142E-001
Al  7.49949825E-001  6.25019870E-001  6.26751047E-001
Al  7.52333502E-001  5.00782768E-001  7.50068476E-001
Al  8.74991545E-001  6.25487587E-001  7.48309301E-001
Al  8.74976323E-001  4.98266837E-001  8.75168392E-001
Al  7.49475682E-001  6.24990650E-001  8.75023781E-001
Al  7.51001472E-001  7.50148998E-001  -1.46036184E-003
Al  8.77057825E-001  8.75509157E-001  -2.17812143E-003
Al  8.75125048E-001  7.49375660E-001  1.24757891E-001
Al  7.52409049E-001  8.74562661E-001  1.26787175E-001
Al  7.50024532E-001  7.49971343E-001  2.50361144E-001
Al  8.72560242E-001  8.74142264E-001  2.51236685E-001
Al  8.74991607E-001  7.49808739E-001  3.75089014E-001
Al  7.50906582E-001  8.75018496E-001  3.76124873E-001
Al  7.50158123E-001  7.49345924E-001  5.00073813E-001
Al  8.74065928E-001  8.75341183E-001  4.99920838E-001
Al  8.75020805E-001  7.47982444E-001  6.25133577E-001
Al  7.50719870E-001  8.74640643E-001  6.24930959E-001
Al  7.48524670E-001  7.50358919E-001  7.50384537E-001
Al  8.75044836E-001  8.74852001E-001  7.47505532E-001
Al  8.74965793E-001  7.50288852E-001  8.75907032E-001
Al  7.51243503E-001  8.75266502E-001  8.75204450E-001
K_POINTS automatic
2 2 2 1 1 1
