&CONTROL
restart_mode = 'from_scratch',
calculation = 'scf',
outdir = '/gpfs/bb/bxp912/scratch',
pseudo_dir = '/gpfs/bb/bxp912/pseudopotentials',
prefix = '2.48000000E-001',
etot_conv_thr = 1.00000000E-007,
forc_conv_thr = 1.00000000E-007,
nstep = 200,
tprnfor = .true.,
tstress = .true.,
disk_io = 'low',
/
&SYSTEM
ibrav = 14,
celldm(1) = 3.05001797E+001,
celldm(2) = 1.00000000E+000,
celldm(3) = 1.00000000E+000,
celldm(4) = 0.00000000E+000,
celldm(5) = 0.00000000E+000,
celldm(6) = 0.00000000E+000,
nat = 256,
ntyp = 1,
ecutwfc = 35,
ecutrho = 208,
occupations = 'smearing',
smearing = 'mv',
degauss = 5.00000007E-002,
/
&ELECTRONS
diagonalization = 'david',
mixing_mode = plain,
mixing_beta = 6.99999988E-001,
conv_thr = 1.00000000E-007,
/
&IONS
ion_dynamics = 'bfgs',
/
&CELL
cell_dynamics = 'bfgs',
press = 0.00000000E+000,
cell_factor = 2.00000000E+000,
/
ATOMIC_SPECIES
Al  2.69815390E+001  Al.pbe-n-kjpaw_psl.0.1.UPF
ATOMIC_POSITIONS crystal
Al  -2.49892596E-003  -1.62889177E-004  -2.09923763E-003
Al  1.22597817E-001  1.25018393E-001  -1.18638299E-004
Al  1.23031047E-001  -4.65677700E-004  1.25202742E-001
Al  2.12871257E-003  1.24924029E-001  1.23901480E-001
Al  9.74515523E-006  8.19311581E-004  2.47897199E-001
Al  1.22914374E-001  1.24980318E-001  2.49887344E-001
Al  1.24460007E-001  -3.26235220E-004  3.75604578E-001
Al  -7.23286816E-004  1.25030349E-001  3.75928538E-001
Al  1.16929299E-003  1.80849423E-003  4.98833248E-001
Al  1.23761463E-001  1.27073517E-001  5.02273879E-001
Al  1.26625089E-001  -2.16530433E-003  6.25008540E-001
Al  2.41472701E-003  1.24152694E-001  6.22540590E-001
Al  -1.87224118E-003  -8.92534584E-006  7.52321335E-001
Al  1.25077147E-001  1.22862697E-001  7.50325329E-001
Al  1.25364475E-001  2.44126390E-004  8.74963742E-001
Al  9.37341801E-005  1.23923907E-001  8.73878677E-001
Al  8.37066115E-006  2.47662489E-001  -1.86486202E-005
Al  1.24948550E-001  3.77269749E-001  9.12939777E-004
Al  1.25249477E-001  2.49839840E-001  1.24893350E-001
Al  7.72546145E-004  3.74991319E-001  1.25023770E-001
Al  1.68989938E-003  2.47525555E-001  2.49990929E-001
Al  1.26267991E-001  3.75063301E-001  2.49926394E-001
Al  1.27387358E-001  2.49947966E-001  3.75156413E-001
Al  8.74849084E-006  3.74824920E-001  3.76228044E-001
Al  2.56503792E-004  2.48980118E-001  5.01063255E-001
Al  1.25833823E-001  3.72651055E-001  4.99339510E-001
Al  1.25175255E-001  2.50153799E-001  6.25816159E-001
Al  -1.68011510E-004  3.77195992E-001  6.25905320E-001
Al  -1.05795117E-004  2.52454205E-001  7.50032596E-001
Al  1.25082660E-001  3.74856391E-001  7.47664581E-001
Al  1.23768273E-001  2.49768981E-001  8.74835722E-001
Al  6.04155126E-004  3.75009710E-001  8.74990419E-001
Al  -9.54926276E-006  4.98496675E-001  -9.51799014E-005
Al  1.26351982E-001  6.24953337E-001  -4.19864039E-004
Al  1.22672580E-001  5.00628591E-001  1.22500024E-001
Al  8.49521059E-006  6.24875885E-001  1.27305421E-001
Al  -2.40727259E-003  4.99808652E-001  2.48857536E-001
Al  1.23460871E-001  6.24939726E-001  2.49941020E-001
Al  1.22766052E-001  4.97542228E-001  3.76559816E-001
Al  4.74028509E-004  6.24065211E-001  3.76658041E-001
Al  3.71883215E-005  4.99962810E-001  4.97639664E-001
Al  1.22500007E-001  6.22702402E-001  5.02173104E-001
Al  1.24965641E-001  4.98796377E-001  6.25471962E-001
Al  -1.40347616E-003  6.25247350E-001  6.27499822E-001
Al  -4.92710597E-004  5.00084227E-001  7.49426715E-001
Al  1.25152591E-001  6.27205156E-001  7.47568284E-001
Al  1.26034989E-001  5.02153988E-001  8.74948459E-001
Al  -2.36066271E-005  6.25141714E-001  8.73282597E-001
Al  -9.05136156E-005  7.50832387E-001  1.37593784E-003
Al  1.23551289E-001  8.75341799E-001  5.79014953E-004
Al  1.24972723E-001  7.51960392E-001  1.23142875E-001
Al  -1.60826904E-004  8.74541037E-001  1.23026969E-001
Al  -1.31428992E-004  7.49464234E-001  2.52432055E-001
Al  1.26083545E-001  8.72720379E-001  2.51970274E-001
Al  1.25018211E-001  7.50119621E-001  3.72555262E-001
Al  -1.58960746E-004  8.72544975E-001  3.72541802E-001
Al  -1.71417377E-003  7.50111085E-001  4.97646462E-001
Al  1.26499551E-001  8.74544860E-001  4.99991374E-001
Al  1.26030237E-001  7.49991442E-001  6.22502447E-001
Al  8.95107556E-006  8.72900856E-001  6.26895201E-001
Al  -1.48622150E-003  7.49916868E-001  7.49938900E-001
Al  1.24455075E-001  8.76405458E-001  7.50622021E-001
Al  1.23343087E-001  7.52476951E-001  8.75862582E-001
Al  -1.58045148E-003  8.75539311E-001  8.76221384E-001
Al  2.49939895E-001  -9.33259467E-005  2.49667077E-003
Al  3.74311962E-001  1.22500163E-001  3.56896511E-005
Al  3.74990172E-001  3.46395564E-004  1.24712824E-001
Al  2.50189407E-001  1.22500506E-001  1.22520902E-001
Al  2.50091857E-001  3.07983703E-004  2.49981845E-001
Al  3.74899646E-001  1.24118134E-001  2.47698362E-001
Al  3.74941637E-001  1.50886372E-003  3.74772218E-001
Al  2.52381287E-001  1.25008414E-001  3.73966103E-001
Al  2.47569418E-001  -7.01003452E-005  5.02457134E-001
Al  3.73778192E-001  1.27405252E-001  5.01574204E-001
Al  3.74965794E-001  8.81188714E-005  6.23200153E-001
Al  2.49812111E-001  1.24327489E-001  6.25178810E-001
Al  2.49945777E-001  8.53101336E-006  7.50537715E-001
Al  3.77463491E-001  1.22897233E-001  7.50050939E-001
Al  3.72585997E-001  9.73098981E-004  8.75019358E-001
Al  2.47503475E-001  1.23730386E-001  8.77379336E-001
Al  2.50949794E-001  2.52409320E-001  -2.01308716E-003
Al  3.75691812E-001  3.74165293E-001  1.85758166E-003
Al  3.72797465E-001  2.47500229E-001  1.23923106E-001
Al  2.50355034E-001  3.72977989E-001  1.22525189E-001
Al  2.50072865E-001  2.50019290E-001  2.52217997E-001
Al  3.75009251E-001  3.74948226E-001  2.50222180E-001
Al  3.77464563E-001  2.50123716E-001  3.77376989E-001
Al  2.52482901E-001  3.74007664E-001  3.76958874E-001
Al  2.47603613E-001  2.50046969E-001  5.00522700E-001
Al  3.72853828E-001  3.72639967E-001  4.99853191E-001
Al  3.75070625E-001  2.50243412E-001  6.23319445E-001
Al  2.50008434E-001  3.74353728E-001  6.24699061E-001
Al  2.50031368E-001  2.50392148E-001  7.50019690E-001
Al  3.73992680E-001  3.73790820E-001  7.51551631E-001
Al  3.77025178E-001  2.50047931E-001  8.75965475E-001
Al  2.50572626E-001  3.74981890E-001  8.74363305E-001
Al  2.52408677E-001  4.97681149E-001  -4.64354932E-005
Al  3.75087038E-001  6.23673702E-001  -6.50264590E-005
Al  3.75070439E-001  5.02400505E-001  1.26589214E-001
Al  2.51211631E-001  6.23498638E-001  1.22852603E-001
Al  2.52479132E-001  5.00638483E-001  2.50255224E-001
Al  3.72547797E-001  6.25408447E-001  2.48602357E-001
Al  3.74973166E-001  4.99981722E-001  3.77183644E-001
Al  2.51199505E-001  6.24981688E-001  3.74981123E-001
Al  2.48504370E-001  4.98379823E-001  5.00120202E-001
Al  3.74991195E-001  6.25089233E-001  4.99373955E-001
Al  3.74977603E-001  5.02310960E-001  6.23525615E-001
Al  2.49957293E-001  6.26386973E-001  6.24071914E-001
Al  2.51263617E-001  4.99091663E-001  7.48567452E-001
Al  3.73799236E-001  6.24991601E-001  7.48778097E-001
Al  3.77416589E-001  5.00094615E-001  8.74501175E-001
Al  2.49927462E-001  6.26075912E-001  8.74847054E-001
Al  2.49969552E-001  7.50086463E-001  8.78781398E-006
Al  3.76118673E-001  8.74604305E-001  2.05800036E-003
Al  3.75140435E-001  7.52486219E-001  1.26939963E-001
Al  2.49786283E-001  8.75059531E-001  1.26311204E-001
Al  2.52490141E-001  7.49975225E-001  2.48316580E-001
Al  3.74539945E-001  8.77029821E-001  2.49769664E-001
Al  3.75062568E-001  7.50376193E-001  3.72548986E-001
Al  2.50024862E-001  8.72500645E-001  3.75063208E-001
Al  2.48620210E-001  7.51023850E-001  5.00297526E-001
Al  3.72590514E-001  8.72518822E-001  4.99962443E-001
Al  3.76548306E-001  7.49331156E-001  6.23021622E-001
Al  2.49932829E-001  8.75267686E-001  6.22604112E-001
Al  2.49898128E-001  7.47506048E-001  7.52426955E-001
Al  3.74149467E-001  8.75538902E-001  7.51305041E-001
Al  3.75440892E-001  7.50088640E-001  8.73759801E-001
Al  2.51504693E-001  8.72909681E-001  8.73297739E-001
Al  4.99952490E-001  -1.93295995E-003  3.25349488E-004
Al  6.22621851E-001  1.27374657E-001  3.28380218E-005
Al  6.24796386E-001  -8.85593095E-006  1.26764175E-001
Al  4.99409982E-001  1.27426492E-001  1.25154854E-001
Al  4.99091406E-001  -8.81468656E-004  2.49463130E-001
Al  6.24979074E-001  1.24712584E-001  2.49928018E-001
Al  6.25017974E-001  -8.97232903E-006  3.72520978E-001
Al  5.01083777E-001  1.25978511E-001  3.72573280E-001
Al  4.99945587E-001  -8.88763534E-006  4.99953816E-001
Al  6.25019809E-001  1.25018837E-001  5.02485065E-001
Al  6.24975279E-001  2.46765119E-003  6.24573476E-001
Al  4.99687967E-001  1.25022280E-001  6.24981789E-001
Al  4.97922152E-001  2.96091308E-004  7.47674815E-001
Al  6.23332873E-001  1.27268830E-001  7.50959511E-001
Al  6.25330605E-001  3.46006713E-004  8.74948889E-001
Al  4.99651035E-001  1.25458350E-001  8.75074033E-001
Al  5.00060835E-001  2.49760335E-001  1.88646063E-005
Al  6.24982863E-001  3.77449505E-001  1.73066859E-004
Al  6.23914706E-001  2.49923824E-001  1.25008377E-001
Al  5.00739863E-001  3.72847414E-001  1.24991269E-001
Al  5.00018906E-001  2.51498009E-001  2.50062252E-001
Al  6.23932338E-001  3.77490125E-001  2.51144937E-001
Al  6.22969616E-001  2.50215230E-001  3.76475419E-001
Al  4.97697166E-001  3.77173633E-001  3.74862713E-001
Al  5.02388322E-001  2.49963873E-001  5.01016839E-001
Al  6.24974163E-001  3.73676715E-001  4.99644403E-001
Al  6.23012530E-001  2.50018721E-001  6.25668163E-001
Al  4.99973000E-001  3.75184594E-001  6.22719283E-001
Al  5.02366425E-001  2.50602858E-001  7.49545711E-001
Al  6.25806059E-001  3.73001198E-001  7.50249426E-001
Al  6.25008814E-001  2.51143268E-001  8.75078886E-001
Al  4.98249454E-001  3.72997428E-001  8.73214916E-001
Al  5.01202891E-001  4.99917726E-001  1.56033694E-004
Al  6.24956680E-001  6.26500005E-001  -1.35276201E-003
Al  6.25008909E-001  5.01086696E-001  1.26492115E-001
Al  4.99813026E-001  6.26479381E-001  1.24336852E-001
Al  5.00597033E-001  4.97505752E-001  2.50164819E-001
Al  6.27480368E-001  6.24964143E-001  2.51179050E-001
Al  6.23925495E-001  5.00174067E-001  3.73205527E-001
Al  5.00671403E-001  6.27211726E-001  3.75995462E-001
Al  5.01576181E-001  4.97566211E-001  4.98119967E-001
Al  6.24432356E-001  6.23751901E-001  5.00913697E-001
Al  6.27207652E-001  5.00020234E-001  6.22871190E-001
Al  4.99569667E-001  6.22665953E-001  6.24991345E-001
Al  4.98037138E-001  5.00869319E-001  7.49144540E-001
Al  6.23692860E-001  6.24908963E-001  7.47617690E-001
Al  6.25215355E-001  4.98496791E-001  8.72557061E-001
Al  5.01799112E-001  6.25018235E-001  8.74017982E-001
Al  4.97501533E-001  7.51107746E-001  2.41422558E-003
Al  6.24174772E-001  8.77015747E-001  2.01291975E-003
Al  6.27102431E-001  7.49991600E-001  1.24955272E-001
Al  4.99085975E-001  8.74991144E-001  1.24963127E-001
Al  4.97550821E-001  7.49971641E-001  2.52445754E-001
Al  6.26996689E-001  8.75786243E-001  2.50200899E-001
Al  6.24991543E-001  7.52310057E-001  3.75030550E-001
Al  4.99967300E-001  8.73796454E-001  3.73723051E-001
Al  4.99979169E-001  7.49974664E-001  5.02340073E-001
Al  6.24786032E-001  8.76776943E-001  4.99626232E-001
Al  6.22558323E-001  7.48956403E-001  6.25009085E-001
Al  4.99818346E-001  8.76017826E-001  6.24964812E-001
Al  5.01230746E-001  7.50031500E-001  7.50330674E-001
Al  6.27497851E-001  8.73283064E-001  7.50272145E-001
Al  6.24991337E-001  7.51447818E-001  8.73625498E-001
Al  5.02494218E-001  8.74890323E-001  8.73046649E-001
Al  7.52279203E-001  1.02549703E-003  -8.70368506E-006
Al  8.74650552E-001  1.24990951E-001  -2.45798322E-003
Al  8.75427547E-001  -5.94437803E-005  1.24819691E-001
Al  7.49847915E-001  1.27372048E-001  1.24898583E-001
Al  7.49421389E-001  -5.04238111E-004  2.50491913E-001
Al  8.75182716E-001  1.22610553E-001  2.50170924E-001
Al  8.74822433E-001  2.03228987E-005  3.76065488E-001
Al  7.49627109E-001  1.27431137E-001  3.72675554E-001
Al  7.49833693E-001  8.38577399E-006  4.99103373E-001
Al  8.75440887E-001  1.24939266E-001  4.99981762E-001
Al  8.75085273E-001  4.39174109E-005  6.22501110E-001
Al  7.51792791E-001  1.22845663E-001  6.23577187E-001
Al  7.50176990E-001  2.47738491E-003  7.51152586E-001
Al  8.74900952E-001  1.26672912E-001  7.49178861E-001
Al  8.75122661E-001  -4.74840106E-005  8.74943628E-001
Al  7.50028349E-001  1.25042995E-001  8.76226130E-001
Al  7.49981393E-001  2.49918384E-001  -1.61423953E-003
Al  8.75063715E-001  3.74991581E-001  -9.42568927E-004
Al  8.75066696E-001  2.50039983E-001  1.22545275E-001
Al  7.49929994E-001  3.74977146E-001  1.24981868E-001
Al  7.50547734E-001  2.49270387E-001  2.50047569E-001
Al  8.74079976E-001  3.77497927E-001  2.50968575E-001
Al  8.74906743E-001  2.49253444E-001  3.77008618E-001
Al  7.49960699E-001  3.74221048E-001  3.75404498E-001
Al  7.50037915E-001  2.52395488E-001  5.00047089E-001
Al  8.73056468E-001  3.75210055E-001  5.00399625E-001
Al  8.73259989E-001  2.50008625E-001  6.23081920E-001
Al  7.47962852E-001  3.75018582E-001  6.25184113E-001
Al  7.50018742E-001  2.47530089E-001  7.51049394E-001
Al  8.75235610E-001  3.73007800E-001  7.51570932E-001
Al  8.76705376E-001  2.51480813E-001  8.77481836E-001
Al  7.49753603E-001  3.75019264E-001  8.76255708E-001
Al  7.50823440E-001  5.00227412E-001  -1.78323737E-003
Al  8.73603449E-001  6.24968278E-001  -7.26355157E-004
Al  8.75114895E-001  4.97515337E-001  1.24213962E-001
Al  7.47506610E-001  6.25531341E-001  1.24981832E-001
Al  7.52477807E-001  5.00045336E-001  2.50335640E-001
Al  8.77238589E-001  6.25342419E-001  2.49493174E-001
Al  8.74389753E-001  5.02440527E-001  3.73130462E-001
Al  7.48238632E-001  6.24958910E-001  3.74964090E-001
Al  7.48254452E-001  5.00929446E-001  5.00048670E-001
Al  8.77063178E-001  6.27363452E-001  5.00008855E-001
Al  8.74772158E-001  4.99869972E-001  6.24967905E-001
Al  7.50269280E-001  6.26046097E-001  6.22924599E-001
Al  7.48368194E-001  4.99729162E-001  7.47525477E-001
Al  8.75108718E-001  6.26976145E-001  7.52304992E-001
Al  8.74991139E-001  4.99408674E-001  8.73777612E-001
Al  7.50420980E-001  6.23557645E-001  8.75112308E-001
Al  7.48695166E-001  7.50032480E-001  -4.39709006E-004
Al  8.72709831E-001  8.75097828E-001  1.74471388E-005
Al  8.75393285E-001  7.52066121E-001  1.24960295E-001
Al  7.50551049E-001  8.76541476E-001  1.24924559E-001
Al  7.47596317E-001  7.49520714E-001  2.52198677E-001
Al  8.74962885E-001  8.75009726E-001  2.50247355E-001
Al  8.77322658E-001  7.49912242E-001  3.72950327E-001
Al  7.49810515E-001  8.72774226E-001  3.75652996E-001
Al  7.48749076E-001  7.49916656E-001  5.00008372E-001
Al  8.73147215E-001  8.75103369E-001  5.02432920E-001
Al  8.75008465E-001  7.49232855E-001  6.26652305E-001
Al  7.51143434E-001  8.74207316E-001  6.25008731E-001
Al  7.50279419E-001  7.50058094E-001  7.49811607E-001
Al  8.76260462E-001  8.75038554E-001  7.47647538E-001
Al  8.75994680E-001  7.49913597E-001  8.74062651E-001
Al  7.48763277E-001  8.73555825E-001  8.75050317E-001
K_POINTS automatic
2 2 2 1 1 1
