&CONTROL
restart_mode = 'from_scratch',
calculation = 'scf',
outdir = '/gpfs/bb/bxp912/scratch',
pseudo_dir = '/gpfs/bb/bxp912/pseudopotentials',
prefix = '2.48000000E-001',
etot_conv_thr = 1.00000000E-007,
forc_conv_thr = 1.00000000E-007,
nstep = 200,
tprnfor = .true.,
tstress = .true.,
disk_io = 'low',
/
&SYSTEM
ibrav = 14,
celldm(1) = 3.05001797E+001,
celldm(2) = 1.00000000E+000,
celldm(3) = 1.00000000E+000,
celldm(4) = 0.00000000E+000,
celldm(5) = 0.00000000E+000,
celldm(6) = 0.00000000E+000,
nat = 256,
ntyp = 1,
ecutwfc = 35,
ecutrho = 208,
occupations = 'smearing',
smearing = 'mv',
degauss = 5.00000007E-002,
/
&ELECTRONS
diagonalization = 'david',
mixing_mode = plain,
mixing_beta = 6.99999988E-001,
conv_thr = 1.00000000E-007,
/
&IONS
ion_dynamics = 'bfgs',
/
&CELL
cell_dynamics = 'bfgs',
press = 0.00000000E+000,
cell_factor = 2.00000000E+000,
/
ATOMIC_SPECIES
Al  2.69815390E+001  Al.pbe-n-kjpaw_psl.0.1.UPF
ATOMIC_POSITIONS crystal
Al  1.61088419E-003  -8.37247579E-006  2.07811550E-005
Al  1.25601246E-001  1.25083297E-001  -5.00954581E-005
Al  1.24930378E-001  -1.76899407E-003  1.27402083E-001
Al  -9.50795879E-005  1.27086720E-001  1.24974777E-001
Al  2.95374752E-005  1.10222361E-003  2.49836212E-001
Al  1.25122481E-001  1.24972404E-001  2.50018319E-001
Al  1.25294564E-001  1.80985691E-003  3.75353703E-001
Al  5.84990686E-005  1.26056329E-001  3.74527005E-001
Al  -1.83624339E-005  1.47618952E-003  4.99858728E-001
Al  1.25184997E-001  1.24856710E-001  4.98236256E-001
Al  1.27432077E-001  3.45593165E-005  6.24049375E-001
Al  -1.73252919E-004  1.27499988E-001  6.22836982E-001
Al  3.75443149E-004  2.41500445E-003  7.50246641E-001
Al  1.25893082E-001  1.25411552E-001  7.47921891E-001
Al  1.24973979E-001  -2.71239385E-004  8.73324500E-001
Al  2.39422646E-003  1.25416745E-001  8.73880825E-001
Al  3.46426846E-004  2.48431788E-001  6.35016143E-004
Al  1.23568622E-001  3.75411361E-001  2.36660684E-003
Al  1.23521582E-001  2.49981892E-001  1.23557821E-001
Al  -2.18152724E-005  3.72989512E-001  1.27468981E-001
Al  -2.33287074E-003  2.50110546E-001  2.51025830E-001
Al  1.23807148E-001  3.77311668E-001  2.50555187E-001
Al  1.26720344E-001  2.49017182E-001  3.72572999E-001
Al  -7.21733975E-005  3.76494616E-001  3.77339091E-001
Al  7.95678155E-004  2.49804471E-001  4.99981774E-001
Al  1.24746550E-001  3.77375364E-001  5.00008604E-001
Al  1.24043374E-001  2.50078902E-001  6.22586757E-001
Al  -2.28004075E-003  3.74575794E-001  6.24208110E-001
Al  2.07012396E-004  2.50008518E-001  7.47753907E-001
Al  1.26358991E-001  3.75190267E-001  7.49991205E-001
Al  1.24981865E-001  2.49991628E-001  8.72548519E-001
Al  -1.87199046E-003  3.77091520E-001  8.77484367E-001
Al  2.01732981E-003  4.99684261E-001  1.35231814E-003
Al  1.22615167E-001  6.25062371E-001  -2.46778216E-003
Al  1.24945250E-001  5.00141480E-001  1.27499927E-001
Al  -4.67659593E-005  6.25035238E-001  1.24855029E-001
Al  -2.29525450E-005  5.00068923E-001  2.48579338E-001
Al  1.25008976E-001  6.22735056E-001  2.50027513E-001
Al  1.24621121E-001  4.99964417E-001  3.74431190E-001
Al  -1.81280062E-005  6.24979798E-001  3.74863956E-001
Al  -1.17190985E-003  5.00008506E-001  4.99718092E-001
Al  1.25148904E-001  6.24888314E-001  5.00088055E-001
Al  1.24648445E-001  4.99991619E-001  6.25290258E-001
Al  -3.68339260E-004  6.24766878E-001  6.25038966E-001
Al  7.10297889E-004  4.99990270E-001  7.49745582E-001
Al  1.24991515E-001  6.24878955E-001  7.49906438E-001
Al  1.23118220E-001  5.02450130E-001  8.72505650E-001
Al  2.04123664E-003  6.27461008E-001  8.75018191E-001
Al  -2.30061579E-003  7.49969658E-001  1.87070325E-005
Al  1.26932748E-001  8.74414541E-001  8.87244116E-006
Al  1.25161011E-001  7.49991523E-001  1.22504792E-001
Al  -2.39226666E-003  8.74991624E-001  1.25043538E-001
Al  -2.36138811E-004  7.50453132E-001  2.47661421E-001
Al  1.25717271E-001  8.73895864E-001  2.49964967E-001
Al  1.22582523E-001  7.51332768E-001  3.77230964E-001
Al  6.63136274E-004  8.77329748E-001  3.73613746E-001
Al  -1.89500249E-003  7.50018109E-001  5.00582711E-001
Al  1.23002895E-001  8.77202056E-001  4.99980447E-001
Al  1.24826662E-001  7.48562966E-001  6.24909300E-001
Al  -2.45680734E-003  8.74903620E-001  6.26145230E-001
Al  7.99602279E-004  7.49610434E-001  7.49945573E-001
Al  1.27195600E-001  8.75018710E-001  7.50155154E-001
Al  1.24263069E-001  7.47690112E-001  8.76421764E-001
Al  -7.63769838E-004  8.77475478E-001  8.74981890E-001
Al  2.47797010E-001  1.04521629E-003  1.84065595E-005
Al  3.77398190E-001  1.27412259E-001  8.88218017E-006
Al  3.72644778E-001  -2.23156357E-004  1.25315539E-001
Al  2.49982724E-001  1.25378003E-001  1.27040096E-001
Al  2.49961842E-001  6.38926322E-004  2.52432978E-001
Al  3.72759880E-001  1.23220684E-001  2.49808562E-001
Al  3.74224146E-001  7.33064087E-004  3.75129241E-001
Al  2.49980054E-001  1.25328923E-001  3.74965905E-001
Al  2.49801651E-001  -1.10225014E-004  5.02042361E-001
Al  3.72612888E-001  1.25172324E-001  5.00112461E-001
Al  3.72819333E-001  1.97896230E-004  6.24760429E-001
Al  2.51690309E-001  1.25679571E-001  6.25378953E-001
Al  2.48922425E-001  2.07096985E-003  7.50661463E-001
Al  3.74991627E-001  1.25138265E-001  7.50118793E-001
Al  3.72566342E-001  -9.60178875E-005  8.77145374E-001
Al  2.49746912E-001  1.26409046E-001  8.75069545E-001
Al  2.49981859E-001  2.52261092E-001  -1.59237053E-003
Al  3.74921743E-001  3.75414446E-001  1.52984236E-004
Al  3.77215444E-001  2.49954805E-001  1.24967501E-001
Al  2.52286871E-001  3.72623677E-001  1.25572555E-001
Al  2.49305371E-001  2.48790325E-001  2.52274369E-001
Al  3.75772470E-001  3.74012823E-001  2.51131212E-001
Al  3.74913557E-001  2.49981629E-001  3.72669853E-001
Al  2.50107765E-001  3.74707447E-001  3.75283683E-001
Al  2.50741166E-001  2.52319924E-001  5.01677120E-001
Al  3.75101469E-001  3.74950102E-001  5.01452000E-001
Al  3.73014913E-001  2.48393714E-001  6.25461121E-001
Al  2.47732293E-001  3.74606373E-001  6.27473792E-001
Al  2.49952547E-001  2.47528391E-001  7.48226022E-001
Al  3.75913372E-001  3.74739207E-001  7.49792210E-001
Al  3.74106214E-001  2.49732573E-001  8.74940637E-001
Al  2.51812935E-001  3.76411307E-001  8.77488046E-001
Al  2.50631604E-001  5.01569676E-001  8.29471087E-004
Al  3.75965898E-001  6.22749216E-001  -2.09814315E-003
Al  3.75209485E-001  5.02492963E-001  1.24482536E-001
Al  2.50277607E-001  6.26002737E-001  1.22849151E-001
Al  2.47878944E-001  4.99930471E-001  2.50161209E-001
Al  3.75009405E-001  6.24899131E-001  2.50224473E-001
Al  3.76526211E-001  4.99669799E-001  3.75019780E-001
Al  2.49990964E-001  6.23450015E-001  3.72750090E-001
Al  2.50451094E-001  5.02325172E-001  5.00069927E-001
Al  3.73800149E-001  6.24973636E-001  4.98133499E-001
Al  3.74991239E-001  4.97845031E-001  6.24971238E-001
Al  2.52356433E-001  6.24415925E-001  6.25023399E-001
Al  2.49784930E-001  4.99978805E-001  7.49873529E-001
Al  3.74798854E-001  6.25008398E-001  7.49893296E-001
Al  3.72729293E-001  4.98297568E-001  8.74727631E-001
Al  2.48865038E-001  6.22504367E-001  8.75152394E-001
Al  2.49790095E-001  7.49981093E-001  4.63171944E-004
Al  3.74980915E-001  8.75474833E-001  1.54750258E-003
Al  3.77440962E-001  7.50008782E-001  1.25018108E-001
Al  2.52394860E-001  8.77499920E-001  1.24963589E-001
Al  2.49974247E-001  7.47501059E-001  2.49981174E-001
Al  3.74951309E-001  8.76958749E-001  2.47642758E-001
Al  3.74448431E-001  7.50367890E-001  3.75376892E-001
Al  2.50639777E-001  8.72768607E-001  3.75050451E-001
Al  2.50028238E-001  7.51422749E-001  5.00026463E-001
Al  3.75008955E-001  8.74952443E-001  5.00113425E-001
Al  3.75018529E-001  7.47504626E-001  6.25018527E-001
Al  2.50030357E-001  8.74866026E-001  6.25079448E-001
Al  2.50175386E-001  7.50468651E-001  7.51545431E-001
Al  3.74089935E-001  8.74302999E-001  7.52451108E-001
Al  3.74981716E-001  7.48088177E-001  8.75072756E-001
Al  2.52003294E-001  8.74981172E-001  8.73555960E-001
Al  4.98388223E-001  5.07733106E-004  -8.53672202E-006
Al  6.25498795E-001  1.23907994E-001  1.83934144E-005
Al  6.24977810E-001  5.80562658E-004  1.25869605E-001
Al  4.99916053E-001  1.27080616E-001  1.23727817E-001
Al  4.99981849E-001  -7.66871127E-005  2.49840491E-001
Al  6.25019431E-001  1.27464868E-001  2.48426281E-001
Al  6.24962673E-001  8.49930348E-006  3.75023159E-001
Al  4.99931449E-001  1.23377771E-001  3.74950744E-001
Al  5.00046928E-001  -1.94834466E-005  5.00020253E-001
Al  6.25879265E-001  1.26474801E-001  5.00019026E-001
Al  6.27481947E-001  -1.19778354E-004  6.26601392E-001
Al  5.02494399E-001  1.24878728E-001  6.25480849E-001
Al  5.00272044E-001  -7.39893502E-005  7.50009414E-001
Al  6.22688143E-001  1.24443336E-001  7.51127694E-001
Al  6.25427818E-001  -2.38475727E-004  8.74982005E-001
Al  5.01974301E-001  1.22504117E-001  8.76201445E-001
Al  4.99435039E-001  2.49884498E-001  1.87481458E-005
Al  6.25271230E-001  3.73570271E-001  -2.55242657E-004
Al  6.26028464E-001  2.48159552E-001  1.25317965E-001
Al  4.99794654E-001  3.74909764E-001  1.22518079E-001
Al  5.01025531E-001  2.49627445E-001  2.50489679E-001
Al  6.24124322E-001  3.74620691E-001  2.50020536E-001
Al  6.25008857E-001  2.49957980E-001  3.72545163E-001
Al  4.98960323E-001  3.74973729E-001  3.72919772E-001
Al  5.01613097E-001  2.51129878E-001  5.00315147E-001
Al  6.23833444E-001  3.77483230E-001  5.02102475E-001
Al  6.22890072E-001  2.50018209E-001  6.23336544E-001
Al  4.99414810E-001  3.75487723E-001  6.24732094E-001
Al  4.97779962E-001  2.49981458E-001  7.50089399E-001
Al  6.26031470E-001  3.75188308E-001  7.49962914E-001
Al  6.25008370E-001  2.51297294E-001  8.76842436E-001
Al  5.01676538E-001  3.75090457E-001  8.75233651E-001
Al  4.99548772E-001  4.99939267E-001  1.69708400E-003
Al  6.25363070E-001  6.25091419E-001  4.46518875E-004
Al  6.23020997E-001  5.00288732E-001  1.27222391E-001
Al  4.99176721E-001  6.25784285E-001  1.27262920E-001
Al  5.02143776E-001  5.00099767E-001  2.50248584E-001
Al  6.26648121E-001  6.25080037E-001  2.52471634E-001
Al  6.23556983E-001  4.99308482E-001  3.74849501E-001
Al  4.98717652E-001  6.25114939E-001  3.72509195E-001
Al  4.97717564E-001  4.98056455E-001  4.99990946E-001
Al  6.25322715E-001  6.24584900E-001  4.99991467E-001
Al  6.25094365E-001  5.02080857E-001  6.24955920E-001
Al  5.02251660E-001  6.26080227E-001  6.26907165E-001
Al  5.00207957E-001  5.02123158E-001  7.47500299E-001
Al  6.25051077E-001  6.22724325E-001  7.51869501E-001
Al  6.27255283E-001  5.01974351E-001  8.76965697E-001
Al  5.00177518E-001  6.22867099E-001  8.74504266E-001
Al  5.02375766E-001  7.50104909E-001  -8.80769559E-006
Al  6.24898387E-001  8.75063268E-001  2.46920226E-003
Al  6.24981290E-001  7.48116443E-001  1.26848293E-001
Al  4.98581457E-001  8.74895288E-001  1.22505291E-001
Al  5.00075465E-001  7.50019344E-001  2.50065684E-001
Al  6.24991621E-001  8.76612107E-001  2.50018458E-001
Al  6.24047272E-001  7.49981795E-001  3.75018628E-001
Al  5.01265293E-001  8.77365762E-001  3.75018147E-001
Al  4.99991112E-001  7.48937895E-001  5.00134496E-001
Al  6.24512021E-001  8.76043960E-001  5.00481472E-001
Al  6.27376852E-001  7.52454359E-001  6.25074591E-001
Al  5.00393712E-001  8.73539615E-001  6.27205846E-001
Al  5.00988548E-001  7.52493906E-001  7.50286328E-001
Al  6.24862620E-001  8.74411477E-001  7.47502088E-001
Al  6.24501793E-001  7.49433424E-001  8.73052144E-001
Al  4.99671121E-001  8.74666146E-001  8.74966769E-001
Al  7.49991544E-001  8.82585973E-006  1.67920517E-003
Al  8.77010352E-001  1.27341251E-001  2.04602926E-004
Al  8.75023819E-001  -2.45245667E-003  1.24743830E-001
Al  7.50770582E-001  1.24934010E-001  1.22540130E-001
Al  7.52493181E-001  1.18066464E-004  2.49167097E-001
Al  8.74736305E-001  1.25018112E-001  2.48069994E-001
Al  8.74033873E-001  -4.04080453E-004  3.77389971E-001
Al  7.47804156E-001  1.25228347E-001  3.74252713E-001
Al  7.50698935E-001  -1.40992210E-003  5.01009139E-001
Al  8.74773540E-001  1.25128431E-001  5.01678564E-001
Al  8.75067036E-001  -8.49738281E-006  6.25736455E-001
Al  7.49508047E-001  1.24611599E-001  6.26386717E-001
Al  7.52111338E-001  -3.82049316E-004  7.49975058E-001
Al  8.77319126E-001  1.27498799E-001  7.49518670E-001
Al  8.75304045E-001  -1.24335065E-003  8.74249077E-001
Al  7.50273422E-001  1.24942396E-001  8.74981300E-001
Al  7.49874189E-001  2.51011866E-001  9.33187891E-006
Al  8.73500495E-001  3.73796214E-001  6.82345055E-004
Al  8.72761434E-001  2.50286873E-001  1.24969051E-001
Al  7.50992171E-001  3.76589766E-001  1.26274325E-001
Al  7.50079757E-001  2.49876964E-001  2.49476404E-001
Al  8.74195613E-001  3.77490424E-001  2.52379730E-001
Al  8.77499985E-001  2.51978417E-001  3.74371622E-001
Al  7.50821818E-001  3.73794060E-001  3.75043395E-001
Al  7.49914779E-001  2.50020037E-001  5.00038362E-001
Al  8.75136982E-001  3.76575191E-001  5.00058482E-001
Al  8.75774992E-001  2.50031631E-001  6.24743538E-001
Al  7.49991585E-001  3.74981741E-001  6.24666579E-001
Al  7.49725043E-001  2.47511327E-001  7.48467355E-001
Al  8.75008448E-001  3.72537357E-001  7.47500456E-001
Al  8.74981746E-001  2.48931668E-001  8.74771862E-001
Al  7.49981388E-001  3.75193714E-001  8.74846452E-001
Al  7.49888620E-001  4.99499826E-001  2.71162798E-005
Al  8.72513533E-001  6.24991593E-001  1.74482971E-003
Al  8.74391963E-001  5.00262547E-001  1.26524709E-001
Al  7.51700871E-001  6.25073750E-001  1.27413434E-001
Al  7.50649618E-001  4.98236999E-001  2.50565154E-001
Al  8.77129838E-001  6.25030088E-001  2.48085724E-001
Al  8.72505057E-001  5.00123577E-001  3.74413637E-001
Al  7.52328005E-001  6.26325047E-001  3.75130900E-001
Al  7.47531483E-001  4.99513844E-001  4.99600285E-001
Al  8.72789938E-001  6.25582148E-001  5.00096944E-001
Al  8.74856883E-001  4.99981078E-001  6.22707128E-001
Al  7.51817378E-001  6.22502406E-001  6.27280543E-001
Al  7.52456028E-001  5.00018682E-001  7.48232104E-001
Al  8.75055736E-001  6.24435994E-001  7.49726282E-001
Al  8.72581850E-001  4.99953560E-001  8.74973371E-001
Al  7.49546381E-001  6.24970070E-001  8.72988885E-001
Al  7.49933802E-001  7.52492532E-001  2.45036626E-003
Al  8.77045997E-001  8.76315370E-001  -6.38323438E-005
Al  8.73529166E-001  7.48609691E-001  1.24822709E-001
Al  7.47738944E-001  8.77480970E-001  1.24959349E-001
Al  7.49477273E-001  7.51675330E-001  2.50207984E-001
Al  8.77190966E-001  8.74981467E-001  2.49075173E-001
Al  8.74970142E-001  7.51729621E-001  3.77407959E-001
Al  7.49952854E-001  8.75158041E-001  3.75332644E-001
Al  7.52012179E-001  7.50270120E-001  5.01852409E-001
Al  8.74960173E-001  8.75827574E-001  5.02051411E-001
Al  8.73427035E-001  7.50057127E-001  6.25495688E-001
Al  7.47832974E-001  8.72502568E-001  6.23435627E-001
Al  7.52034960E-001  7.51386825E-001  7.49974061E-001
Al  8.74981772E-001  8.72504702E-001  7.52401908E-001
Al  8.75008387E-001  7.50103500E-001  8.75292795E-001
Al  7.47604952E-001  8.74557959E-001  8.72685638E-001
K_POINTS automatic
2 2 2 1 1 1
