&CONTROL
restart_mode = 'from_scratch',
calculation = 'scf',
outdir = '/gpfs/bb/bxp912/scratch',
pseudo_dir = '/gpfs/bb/bxp912/pseudopotentials',
prefix = '2.48000000E-001',
etot_conv_thr = 1.00000000E-007,
forc_conv_thr = 1.00000000E-007,
nstep = 200,
tprnfor = .true.,
tstress = .true.,
disk_io = 'low',
/
&SYSTEM
ibrav = 14,
celldm(1) = 3.05001797E+001,
celldm(2) = 1.00000000E+000,
celldm(3) = 1.00000000E+000,
celldm(4) = 0.00000000E+000,
celldm(5) = 0.00000000E+000,
celldm(6) = 0.00000000E+000,
nat = 256,
ntyp = 1,
ecutwfc = 35,
ecutrho = 208,
occupations = 'smearing',
smearing = 'mv',
degauss = 5.00000007E-002,
/
&ELECTRONS
diagonalization = 'david',
mixing_mode = plain,
mixing_beta = 6.99999988E-001,
conv_thr = 1.00000000E-007,
/
&IONS
ion_dynamics = 'bfgs',
/
&CELL
cell_dynamics = 'bfgs',
press = 0.00000000E+000,
cell_factor = 2.00000000E+000,
/
ATOMIC_SPECIES
Al  2.69815390E+001  Al.pbe-n-kjpaw_psl.0.1.UPF
ATOMIC_POSITIONS crystal
Al  -3.12259173E-004  9.82327985E-006  1.81510268E-005
Al  1.25309623E-001  1.23324247E-001  -6.61354291E-004
Al  1.24990699E-001  -2.10322368E-003  1.25018336E-001
Al  -2.49688378E-003  1.24488272E-001  1.24307314E-001
Al  -5.22667117E-004  -1.99685368E-004  2.50505361E-001
Al  1.24426014E-001  1.25022662E-001  2.50643907E-001
Al  1.25850090E-001  -1.23817099E-003  3.72644362E-001
Al  2.42948400E-003  1.27224782E-001  3.77194943E-001
Al  -7.65447709E-005  4.09442376E-004  4.99980918E-001
Al  1.24195578E-001  1.23814953E-001  5.00308052E-001
Al  1.24981012E-001  1.64493066E-003  6.24976870E-001
Al  1.84923146E-005  1.22902550E-001  6.25018554E-001
Al  -1.99791307E-003  -1.98508451E-003  7.50718483E-001
Al  1.24185187E-001  1.27369627E-001  7.47787449E-001
Al  1.23775073E-001  -2.05008837E-003  8.76854615E-001
Al  2.49961146E-003  1.23980864E-001  8.72733704E-001
Al  5.21385677E-004  2.50304439E-001  7.37682432E-004
Al  1.25604853E-001  3.74143889E-001  9.68349568E-005
Al  1.25975498E-001  2.51168045E-001  1.27027560E-001
Al  -4.69223049E-004  3.73421712E-001  1.24991060E-001
Al  1.81963965E-003  2.49951048E-001  2.50306823E-001
Al  1.27395954E-001  3.74618775E-001  2.51452557E-001
Al  1.24945474E-001  2.50008600E-001  3.74978487E-001
Al  2.49751196E-003  3.73053523E-001  3.73793920E-001
Al  4.53155449E-004  2.52206503E-001  4.99981831E-001
Al  1.22660249E-001  3.74990890E-001  4.99784657E-001
Al  1.24981398E-001  2.49893283E-001  6.25205102E-001
Al  8.37020412E-006  3.74799663E-001  6.24519848E-001
Al  -1.76097638E-003  2.51206078E-001  7.49979753E-001
Al  1.23209981E-001  3.74729739E-001  7.47536576E-001
Al  1.24636002E-001  2.52342402E-001  8.74954353E-001
Al  -2.44379443E-003  3.74914117E-001  8.75018872E-001
Al  1.82207700E-005  5.00020053E-001  -2.34356404E-003
Al  1.24955502E-001  6.26287578E-001  -1.26204947E-003
Al  1.25152004E-001  4.99933913E-001  1.25546649E-001
Al  3.19609345E-005  6.24710033E-001  1.26205711E-001
Al  2.11770036E-004  4.99707476E-001  2.49896103E-001
Al  1.22552745E-001  6.26431966E-001  2.52009031E-001
Al  1.25018526E-001  5.00172215E-001  3.75612237E-001
Al  8.47712649E-004  6.24384570E-001  3.72581907E-001
Al  4.11661471E-005  5.00059404E-001  5.00018269E-001
Al  1.23873444E-001  6.24323175E-001  4.99072282E-001
Al  1.24791544E-001  4.98023902E-001  6.22598148E-001
Al  1.16780105E-003  6.23213712E-001  6.24859073E-001
Al  2.47913028E-003  5.00008474E-001  7.49370874E-001
Al  1.24333267E-001  6.25270107E-001  7.49353304E-001
Al  1.25008370E-001  4.98063551E-001  8.77455582E-001
Al  -1.90145473E-004  6.22860830E-001  8.76858183E-001
Al  3.81229931E-005  7.49752994E-001  -7.55506631E-004
Al  1.25018108E-001  8.75030994E-001  3.20462913E-005
Al  1.24661783E-001  7.49990623E-001  1.26801434E-001
Al  1.89808418E-003  8.77078201E-001  1.22632081E-001
Al  4.16816002E-004  7.47749293E-001  2.50512097E-001
Al  1.22510491E-001  8.74520902E-001  2.49981139E-001
Al  1.25696653E-001  7.49745300E-001  3.77250757E-001
Al  -5.57651776E-004  8.73495632E-001  3.74950147E-001
Al  -2.30766243E-004  7.51700493E-001  4.99185136E-001
Al  1.24248403E-001  8.74981892E-001  4.98898330E-001
Al  1.26367693E-001  7.49976134E-001  6.22511301E-001
Al  -3.26785357E-005  8.73597698E-001  6.26732691E-001
Al  1.26895027E-003  7.52237604E-001  7.47500747E-001
Al  1.24660720E-001  8.75382920E-001  7.50642330E-001
Al  1.24980644E-001  7.50061397E-001  8.75265660E-001
Al  -2.17993618E-003  8.74761703E-001  8.75535957E-001
Al  2.50071355E-001  5.29485947E-004  -4.47815717E-005
Al  3.74875254E-001  1.22698959E-001  -1.38385200E-003
Al  3.74981587E-001  1.60523086E-004  1.27069035E-001
Al  2.49981357E-001  1.22540695E-001  1.27492757E-001
Al  2.49770396E-001  -1.46020207E-003  2.49904973E-001
Al  3.75386494E-001  1.24452161E-001  2.51988108E-001
Al  3.75159318E-001  1.95051983E-005  3.77372439E-001
Al  2.49907299E-001  1.26181046E-001  3.72966501E-001
Al  2.49913134E-001  -1.33868501E-003  4.99930865E-001
Al  3.73434352E-001  1.24745067E-001  4.99959468E-001
Al  3.77494652E-001  4.70126553E-004  6.24929728E-001
Al  2.49981718E-001  1.24139564E-001  6.24966389E-001
Al  2.48760257E-001  -2.21115045E-003  7.49625086E-001
Al  3.74351733E-001  1.23688444E-001  7.50021448E-001
Al  3.74991630E-001  -2.22839025E-004  8.74064453E-001
Al  2.48081641E-001  1.22632408E-001  8.72833832E-001
Al  2.51941245E-001  2.50219655E-001  -2.23958104E-003
Al  3.75290513E-001  3.74947150E-001  4.40630692E-004
Al  3.77202383E-001  2.49755448E-001  1.25150663E-001
Al  2.50231814E-001  3.75042509E-001  1.24977339E-001
Al  2.49476788E-001  2.52233923E-001  2.50086765E-001
Al  3.77461214E-001  3.75442649E-001  2.51813386E-001
Al  3.74869722E-001  2.52466736E-001  3.75143176E-001
Al  2.50387630E-001  3.73323555E-001  3.75206956E-001
Al  2.48678154E-001  2.50398204E-001  5.00400635E-001
Al  3.74345630E-001  3.72694400E-001  5.00036220E-001
Al  3.74347738E-001  2.49977165E-001  6.24926502E-001
Al  2.49357435E-001  3.75068558E-001  6.27492097E-001
Al  2.48522558E-001  2.47672564E-001  7.51540067E-001
Al  3.74045005E-001  3.75029533E-001  7.49313582E-001
Al  3.72565867E-001  2.48461310E-001  8.75219694E-001
Al  2.50467633E-001  3.74963558E-001  8.75289534E-001
Al  2.47667067E-001  4.99981875E-001  -2.36725524E-003
Al  3.74962072E-001  6.22722617E-001  1.25988562E-003
Al  3.72991802E-001  4.98592915E-001  1.22628247E-001
Al  2.50943296E-001  6.24335058E-001  1.25328068E-001
Al  2.49681964E-001  4.99831064E-001  2.49771433E-001
Al  3.74446985E-001  6.25122819E-001  2.49923714E-001
Al  3.75018986E-001  5.02494309E-001  3.77499675E-001
Al  2.48077818E-001  6.25137779E-001  3.72562781E-001
Al  2.47791414E-001  5.00918553E-001  4.98394528E-001
Al  3.75018417E-001  6.24973894E-001  4.97827233E-001
Al  3.74953249E-001  5.02392483E-001  6.26632508E-001
Al  2.49991238E-001  6.26847806E-001  6.23728750E-001
Al  2.52319172E-001  4.98158871E-001  7.48736298E-001
Al  3.75374901E-001  6.24968169E-001  7.49946717E-001
Al  3.77482128E-001  4.98037323E-001  8.72586010E-001
Al  2.52075473E-001  6.25372572E-001  8.74604609E-001
Al  2.49974658E-001  7.50086316E-001  -4.85523027E-005
Al  3.75314349E-001  8.73739503E-001  3.34883682E-004
Al  3.73903752E-001  7.49923190E-001  1.22958651E-001
Al  2.49981425E-001  8.75018976E-001  1.24800166E-001
Al  2.51174409E-001  7.50250762E-001  2.48426116E-001
Al  3.72795665E-001  8.74991625E-001  2.50294090E-001
Al  3.77454239E-001  7.50629374E-001  3.73022592E-001
Al  2.50073470E-001  8.75699088E-001  3.75055899E-001
Al  2.52002817E-001  7.49697847E-001  4.98354539E-001
Al  3.74675133E-001  8.77435046E-001  4.98616551E-001
Al  3.74929925E-001  7.51700218E-001  6.26241167E-001
Al  2.50161637E-001  8.75062449E-001  6.27250512E-001
Al  2.51228446E-001  7.52257163E-001  7.47604215E-001
Al  3.75050176E-001  8.72925954E-001  7.49153533E-001
Al  3.77135959E-001  7.47500862E-001  8.74981878E-001
Al  2.52104596E-001  8.74417852E-001  8.74980446E-001
Al  4.97647815E-001  -3.27837675E-004  2.36262724E-004
Al  6.27212095E-001  1.27464512E-001  -2.15484357E-004
Al  6.24899801E-001  1.34334183E-003  1.25094201E-001
Al  5.02135357E-001  1.25008661E-001  1.24515979E-001
Al  4.99991490E-001  2.22059975E-003  2.50030985E-001
Al  6.22500225E-001  1.25315346E-001  2.49262094E-001
Al  6.25018544E-001  3.39254976E-004  3.74962200E-001
Al  4.99035165E-001  1.23565325E-001  3.74437931E-001
Al  4.99991385E-001  -2.10310177E-003  5.02106010E-001
Al  6.24029784E-001  1.26338862E-001  4.97548705E-001
Al  6.25789052E-001  -7.94788874E-005  6.25018364E-001
Al  4.99053377E-001  1.25426674E-001  6.26537390E-001
Al  4.98860717E-001  -1.32749671E-003  7.49213554E-001
Al  6.24980556E-001  1.25019043E-001  7.50178991E-001
Al  6.27445339E-001  9.55947969E-006  8.75267586E-001
Al  4.99660710E-001  1.24820890E-001  8.75128012E-001
Al  4.99991485E-001  2.51169366E-001  2.75487244E-004
Al  6.22505633E-001  3.72805962E-001  -1.93334435E-005
Al  6.27031424E-001  2.49153316E-001  1.24981690E-001
Al  5.02492974E-001  3.74979135E-001  1.23263736E-001
Al  5.00104202E-001  2.50381983E-001  2.51869573E-001
Al  6.24050333E-001  3.73718901E-001  2.50026829E-001
Al  6.24524271E-001  2.49991073E-001  3.74981429E-001
Al  5.01431704E-001  3.74204604E-001  3.75018433E-001
Al  5.00474212E-001  2.48169442E-001  5.00175582E-001
Al  6.27325156E-001  3.75867489E-001  5.00484641E-001
Al  6.27231320E-001  2.50257544E-001  6.25118440E-001
Al  4.99991316E-001  3.74003730E-001  6.25237229E-001
Al  5.01151773E-001  2.51888175E-001  7.49418418E-001
Al  6.24568326E-001  3.75500134E-001  7.52106591E-001
Al  6.25414768E-001  2.48849649E-001  8.76292406E-001
Al  4.99885531E-001  3.77434502E-001  8.75247699E-001
Al  4.99830121E-001  5.00224824E-001  1.65430950E-003
Al  6.23187757E-001  6.23752304E-001  1.28784673E-003
Al  6.25087044E-001  4.99964878E-001  1.25040965E-001
Al  4.99648345E-001  6.25638483E-001  1.22516058E-001
Al  5.01208073E-001  5.00316357E-001  2.49891351E-001
Al  6.25018382E-001  6.23620559E-001  2.50410457E-001
Al  6.24929899E-001  5.00391876E-001  3.74780480E-001
Al  5.00809214E-001  6.24599903E-001  3.75906025E-001
Al  5.00136940E-001  5.01600268E-001  4.98572803E-001
Al  6.24846364E-001  6.27046024E-001  4.99991204E-001
Al  6.25166044E-001  5.01026138E-001  6.23947243E-001
Al  4.99938499E-001  6.24901282E-001  6.22674363E-001
Al  5.00038001E-001  4.99981359E-001  7.47748448E-001
Al  6.25018737E-001  6.24064056E-001  7.49586822E-001
Al  6.22559278E-001  5.00039623E-001  8.73305403E-001
Al  5.00008378E-001  6.26483331E-001  8.74174934E-001
Al  4.99743205E-001  7.49898172E-001  2.49340923E-003
Al  6.27499529E-001  8.74724362E-001  -6.54612101E-004
Al  6.25515395E-001  7.51895346E-001  1.25041242E-001
Al  5.00181239E-001  8.74569465E-001  1.22674370E-001
Al  4.99065961E-001  7.50045629E-001  2.50025488E-001
Al  6.27261736E-001  8.74851670E-001  2.50071565E-001
Al  6.25008755E-001  7.51737241E-001  3.75020074E-001
Al  4.99991573E-001  8.75287734E-001  3.75026099E-001
Al  5.00438327E-001  7.49981353E-001  4.98874939E-001
Al  6.24255925E-001  8.74977066E-001  4.97935311E-001
Al  6.27492815E-001  7.51298489E-001  6.23960300E-001
Al  5.00396843E-001  8.75224564E-001  6.24902437E-001
Al  5.01838720E-001  7.49002683E-001  7.50322177E-001
Al  6.22782162E-001  8.77161961E-001  7.51936721E-001
Al  6.22979209E-001  7.50008384E-001  8.74743277E-001
Al  5.01288143E-001  8.74726200E-001  8.77491085E-001
Al  7.47789442E-001  -1.25488657E-003  1.34998527E-003
Al  8.75196671E-001  1.27375529E-001  -2.37641263E-003
Al  8.75094163E-001  -1.60414697E-004  1.27499527E-001
Al  7.52155504E-001  1.25115213E-001  1.24491343E-001
Al  7.49554000E-001  8.58693718E-006  2.49875678E-001
Al  8.74846718E-001  1.24838907E-001  2.47501914E-001
Al  8.74335928E-001  1.04824297E-003  3.74896194E-001
Al  7.49895142E-001  1.25026106E-001  3.75394331E-001
Al  7.50274374E-001  -1.81239282E-003  5.00019435E-001
Al  8.73182647E-001  1.26910138E-001  5.00018188E-001
Al  8.75095176E-001  -2.54176891E-004  6.24779782E-001
Al  7.50018708E-001  1.25067588E-001  6.24991423E-001
Al  7.47617469E-001  -1.95929006E-005  7.49371076E-001
Al  8.76412967E-001  1.23185274E-001  7.49223381E-001
Al  8.75882690E-001  -1.16024772E-003  8.74886211E-001
Al  7.49969986E-001  1.25087008E-001  8.74083101E-001
Al  7.50008719E-001  2.50152804E-001  -1.65769195E-003
Al  8.75207056E-001  3.74907140E-001  1.81154756E-005
Al  8.77483093E-001  2.51134706E-001  1.25046235E-001
Al  7.50357260E-001  3.74159360E-001  1.24610391E-001
Al  7.49991385E-001  2.50230883E-001  2.50441866E-001
Al  8.73459868E-001  3.74951187E-001  2.50735200E-001
Al  8.74495471E-001  2.51885113E-001  3.72851749E-001
Al  7.50029208E-001  3.74641856E-001  3.75453596E-001
Al  7.49482463E-001  2.50320252E-001  4.99693224E-001
Al  8.75336859E-001  3.74922145E-001  5.02494713E-001
Al  8.73481754E-001  2.50412470E-001  6.23898834E-001
Al  7.50090338E-001  3.74438702E-001  6.26413383E-001
Al  7.49906405E-001  2.48899573E-001  7.49976333E-001
Al  8.75223164E-001  3.75934374E-001  7.48247145E-001
Al  8.74804201E-001  2.50157354E-001  8.74397970E-001
Al  7.50038546E-001  3.77084671E-001  8.74314817E-001
Al  7.49904479E-001  5.02496528E-001  -3.52394070E-005
Al  8.75688583E-001  6.24916850E-001  -1.43570944E-003
Al  8.75025537E-001  5.00313312E-001  1.24161221E-001
Al  7.52488866E-001  6.24778878E-001  1.25019082E-001
Al  7.47792174E-001  4.99478322E-001  2.50066425E-001
Al  8.72662685E-001  6.24253261E-001  2.49493114E-001
Al  8.74718401E-001  5.00075532E-001  3.77469323E-001
Al  7.52199070E-001  6.23623106E-001  3.75185057E-001
Al  7.48576828E-001  5.00470566E-001  4.99824569E-001
Al  8.75971775E-001  6.27498228E-001  5.00065393E-001
Al  8.75103189E-001  5.00042118E-001  6.25953502E-001
Al  7.48269410E-001  6.25573417E-001  6.27407743E-001
Al  7.51225378E-001  5.00187958E-001  7.48335272E-001
Al  8.75993612E-001  6.24740907E-001  7.50019262E-001
Al  8.76473445E-001  4.99965736E-001  8.74846249E-001
Al  7.50018178E-001  6.25022701E-001  8.73132040E-001
Al  7.48405306E-001  7.50025158E-001  1.59523559E-003
Al  8.74964658E-001  8.72518398E-001  5.62476447E-004
Al  8.75020201E-001  7.49941731E-001  1.26619316E-001
Al  7.50269468E-001  8.77320487E-001  1.25203084E-001
Al  7.49898507E-001  7.48561746E-001  2.49878465E-001
Al  8.74501593E-001  8.72964331E-001  2.50018691E-001
Al  8.74784086E-001  7.51437806E-001  3.75388621E-001
Al  7.50025335E-001  8.77055544E-001  3.72801009E-001
Al  7.49991586E-001  7.52174073E-001  5.00662671E-001
Al  8.75021414E-001  8.74615084E-001  5.00018480E-001
Al  8.75078412E-001  7.50232181E-001  6.23234084E-001
Al  7.49931186E-001  8.77495639E-001  6.25542096E-001
Al  7.49753976E-001  7.52336053E-001  7.49967171E-001
Al  8.75027540E-001  8.75324898E-001  7.51542068E-001
Al  8.74951128E-001  7.50903133E-001  8.72724542E-001
Al  7.50385226E-001  8.74314936E-001  8.74973731E-001
K_POINTS automatic
2 2 2 1 1 1
