&CONTROL
restart_mode = 'from_scratch',
calculation = 'scf',
outdir = '/gpfs/bb/bxp912/scratch',
pseudo_dir = '/gpfs/bb/bxp912/pseudopotentials',
prefix = '2.48000000E-001',
etot_conv_thr = 1.00000000E-007,
forc_conv_thr = 1.00000000E-007,
nstep = 200,
tprnfor = .true.,
tstress = .true.,
disk_io = 'low',
/
&SYSTEM
ibrav = 14,
celldm(1) = 3.05001797E+001,
celldm(2) = 1.00000000E+000,
celldm(3) = 1.00000000E+000,
celldm(4) = 0.00000000E+000,
celldm(5) = 0.00000000E+000,
celldm(6) = 0.00000000E+000,
nat = 256,
ntyp = 1,
ecutwfc = 35,
ecutrho = 208,
occupations = 'smearing',
smearing = 'mv',
degauss = 5.00000007E-002,
/
&ELECTRONS
diagonalization = 'david',
mixing_mode = plain,
mixing_beta = 6.99999988E-001,
conv_thr = 1.00000000E-007,
/
&IONS
ion_dynamics = 'bfgs',
/
&CELL
cell_dynamics = 'bfgs',
press = 0.00000000E+000,
cell_factor = 2.00000000E+000,
/
ATOMIC_SPECIES
Al  2.69815390E+001  Al.pbe-n-kjpaw_psl.0.1.UPF
ATOMIC_POSITIONS crystal
Al  -2.09753084E-003  7.12475638E-005  1.75244525E-004
Al  1.24119498E-001  1.26475871E-001  6.77766628E-004
Al  1.25731397E-001  -1.81458080E-005  1.27462534E-001
Al  1.47758488E-003  1.25134527E-001  1.25038146E-001
Al  1.69030093E-003  1.03079972E-004  2.50009070E-001
Al  1.27489521E-001  1.25018219E-001  2.51825072E-001
Al  1.27479004E-001  -1.86298096E-005  3.74981460E-001
Al  1.64099912E-003  1.24126082E-001  3.74841801E-001
Al  8.80218336E-004  2.66785603E-004  5.02268846E-001
Al  1.26236431E-001  1.24288702E-001  5.01695849E-001
Al  1.25591013E-001  1.39407994E-003  6.23528840E-001
Al  -7.84154213E-004  1.27479220E-001  6.23866021E-001
Al  -8.96466338E-004  -2.24847524E-003  7.50041022E-001
Al  1.24303541E-001  1.24991370E-001  7.48591614E-001
Al  1.24831990E-001  6.81765012E-004  8.75484219E-001
Al  -4.01099310E-005  1.25109152E-001  8.74100766E-001
Al  9.96080224E-005  2.48031682E-001  1.96252821E-003
Al  1.24981230E-001  3.77045015E-001  2.45043631E-003
Al  1.25031364E-001  2.49323352E-001  1.25035323E-001
Al  5.74282814E-004  3.75480817E-001  1.24883851E-001
Al  1.16068883E-004  2.49966845E-001  2.47500155E-001
Al  1.24950216E-001  3.74957947E-001  2.52224899E-001
Al  1.23300292E-001  2.47534789E-001  3.75046120E-001
Al  6.39335888E-004  3.73822004E-001  3.72521645E-001
Al  1.70986640E-004  2.52332260E-001  5.00806985E-001
Al  1.27460654E-001  3.74911479E-001  4.99296006E-001
Al  1.24981891E-001  2.47956539E-001  6.24476181E-001
Al  1.38187106E-003  3.74845733E-001  6.24981266E-001
Al  -1.18211100E-003  2.50274413E-001  7.50122500E-001
Al  1.26863871E-001  3.74289601E-001  7.51715382E-001
Al  1.27405690E-001  2.52282484E-001  8.74981853E-001
Al  1.59943430E-003  3.76808904E-001  8.74086517E-001
Al  1.66258666E-004  5.02003773E-001  8.07295002E-004
Al  1.25018340E-001  6.23427302E-001  7.14466939E-004
Al  1.24210567E-001  5.00084549E-001  1.24981628E-001
Al  -2.38031482E-003  6.26724262E-001  1.23485459E-001
Al  1.81723497E-005  4.99867086E-001  2.52433042E-001
Al  1.22528277E-001  6.24694047E-001  2.50881538E-001
Al  1.25598602E-001  5.02070201E-001  3.76196405E-001
Al  -1.81511467E-003  6.24936799E-001  3.76279610E-001
Al  2.31070682E-003  5.00509670E-001  5.00051994E-001
Al  1.27022145E-001  6.26036929E-001  4.98961097E-001
Al  1.26822244E-001  4.99970156E-001  6.24461684E-001
Al  -1.70014543E-005  6.26391491E-001  6.23132460E-001
Al  8.44142749E-006  4.98977779E-001  7.50008506E-001
Al  1.24981308E-001  6.23500066E-001  7.50017313E-001
Al  1.24991503E-001  4.99947682E-001  8.77374385E-001
Al  -2.30387734E-003  6.24918601E-001  8.75018208E-001
Al  1.46008760E-003  7.48595283E-001  -1.02945769E-003
Al  1.25532643E-001  8.74973869E-001  -4.89084924E-004
Al  1.24885472E-001  7.50218657E-001  1.24991620E-001
Al  1.16168030E-004  8.74899679E-001  1.25017248E-001
Al  2.00731084E-003  7.47501138E-001  2.49991514E-001
Al  1.23832565E-001  8.74766673E-001  2.50390903E-001
Al  1.23476256E-001  7.52448572E-001  3.74783136E-001
Al  -2.04229413E-003  8.77321429E-001  3.72525193E-001
Al  -1.60727803E-003  7.50161089E-001  4.98735633E-001
Al  1.25060961E-001  8.75158914E-001  5.00018166E-001
Al  1.25008487E-001  7.48791636E-001  6.25064207E-001
Al  -1.79542191E-003  8.75308241E-001  6.25060844E-001
Al  -1.04522031E-003  7.50244414E-001  7.49954533E-001
Al  1.25008701E-001  8.76968930E-001  7.51520427E-001
Al  1.25072355E-001  7.47568377E-001  8.75401539E-001
Al  -7.03339860E-004  8.74991334E-001  8.72682051E-001
Al  2.49958709E-001  1.06479870E-003  3.88023338E-004
Al  3.74991288E-001  1.23774130E-001  -3.14168944E-005
Al  3.75322897E-001  -2.22059259E-003  1.27478892E-001
Al  2.51777087E-001  1.23848660E-001  1.25484945E-001
Al  2.49939766E-001  1.51977212E-004  2.49932982E-001
Al  3.74924896E-001  1.26390473E-001  2.47823583E-001
Al  3.74991597E-001  2.49895372E-003  3.74968928E-001
Al  2.49991404E-001  1.24991429E-001  3.77104012E-001
Al  2.49981777E-001  -1.31004312E-003  5.01930387E-001
Al  3.72964643E-001  1.25045667E-001  5.02249366E-001
Al  3.77038000E-001  4.91774687E-004  6.24991381E-001
Al  2.49991064E-001  1.27276463E-001  6.25018167E-001
Al  2.49940144E-001  1.75116655E-003  7.50008377E-001
Al  3.75089918E-001  1.24909616E-001  7.49650223E-001
Al  3.75687804E-001  -2.33832684E-003  8.75021150E-001
Al  2.49939898E-001  1.24956157E-001  8.74981459E-001
Al  2.49387312E-001  2.49963585E-001  3.21144391E-004
Al  3.75832760E-001  3.75152516E-001  1.10690840E-003
Al  3.77397758E-001  2.51730884E-001  1.24398636E-001
Al  2.51454033E-001  3.76315101E-001  1.27274486E-001
Al  2.48200073E-001  2.49887099E-001  2.50070269E-001
Al  3.75384721E-001  3.73955763E-001  2.47738276E-001
Al  3.74361994E-001  2.50770528E-001  3.77498571E-001
Al  2.49991084E-001  3.73187815E-001  3.75020688E-001
Al  2.50044593E-001  2.49958096E-001  5.02271534E-001
Al  3.75033764E-001  3.77055261E-001  4.99762153E-001
Al  3.76985571E-001  2.47820159E-001  6.22892150E-001
Al  2.50433031E-001  3.74746931E-001  6.25406389E-001
Al  2.50009573E-001  2.50518837E-001  7.50018110E-001
Al  3.75008404E-001  3.75185138E-001  7.47709364E-001
Al  3.77020674E-001  2.52499535E-001  8.74980686E-001
Al  2.50018281E-001  3.74980894E-001  8.73377533E-001
Al  2.49980721E-001  5.00425305E-001  2.27634118E-003
Al  3.75149966E-001  6.22995042E-001  -2.33082484E-003
Al  3.74969906E-001  4.98075770E-001  1.25461891E-001
Al  2.52494431E-001  6.26224822E-001  1.25346689E-001
Al  2.48588524E-001  5.00008373E-001  2.49991624E-001
Al  3.74846642E-001  6.25266025E-001  2.49070436E-001
Al  3.73246451E-001  4.97778024E-001  3.74644298E-001
Al  2.50025844E-001  6.25018116E-001  3.74963084E-001
Al  2.47599825E-001  4.98121569E-001  4.98364815E-001
Al  3.72508246E-001  6.25120313E-001  5.01210357E-001
Al  3.77431380E-001  5.02387144E-001  6.26497492E-001
Al  2.49981795E-001  6.25502523E-001  6.24147500E-001
Al  2.48393090E-001  4.99990713E-001  7.47858318E-001
Al  3.72874785E-001  6.22512165E-001  7.47721661E-001
Al  3.74952876E-001  4.97949956E-001  8.73631802E-001
Al  2.50416864E-001  6.25060025E-001  8.77292887E-001
Al  2.50008897E-001  7.50017228E-001  9.02982618E-006
Al  3.75261224E-001  8.76046833E-001  -4.09007793E-004
Al  3.75040683E-001  7.49838011E-001  1.25113076E-001
Al  2.49980487E-001  8.74617400E-001  1.24592079E-001
Al  2.49949636E-001  7.48909803E-001  2.52208748E-001
Al  3.74362438E-001  8.74480370E-001  2.51383142E-001
Al  3.77125844E-001  7.49968989E-001  3.74978942E-001
Al  2.52497238E-001  8.75127318E-001  3.72881015E-001
Al  2.47635669E-001  7.51633414E-001  5.00294456E-001
Al  3.74981823E-001  8.75486789E-001  5.00018136E-001
Al  3.74979727E-001  7.51053913E-001  6.25196741E-001
Al  2.49980440E-001  8.73257594E-001  6.24700363E-001
Al  2.52396022E-001  7.49846751E-001  7.50515353E-001
Al  3.74991063E-001  8.77479681E-001  7.47502088E-001
Al  3.76465904E-001  7.50480383E-001  8.75019190E-001
Al  2.51642622E-001  8.75030498E-001  8.75281877E-001
Al  5.00018234E-001  -2.48720214E-003  -1.50612703E-003
Al  6.24914776E-001  1.24400443E-001  2.45202118E-003
Al  6.24598946E-001  2.15705372E-003  1.24980922E-001
Al  4.99957602E-001  1.27034814E-001  1.22514879E-001
Al  4.98021687E-001  1.90545047E-004  2.50070611E-001
Al  6.24050702E-001  1.22853334E-001  2.50554205E-001
Al  6.25082212E-001  -2.45152147E-003  3.75181420E-001
Al  5.00286899E-001  1.25876112E-001  3.75150870E-001
Al  4.99982369E-001  3.44882308E-004  5.00916193E-001
Al  6.25086527E-001  1.24165632E-001  5.00018302E-001
Al  6.25009166E-001  -1.88830594E-003  6.24929893E-001
Al  4.98081701E-001  1.27497033E-001  6.25344279E-001
Al  4.99122545E-001  1.86663702E-005  7.48808688E-001
Al  6.24981891E-001  1.27486152E-001  7.51656219E-001
Al  6.23693879E-001  -1.95626764E-003  8.74767927E-001
Al  5.00018140E-001  1.25270879E-001  8.76716834E-001
Al  4.98610295E-001  2.50843170E-001  -9.14619269E-005
Al  6.24270159E-001  3.75069328E-001  1.90549121E-005
Al  6.25763589E-001  2.50062371E-001  1.27499252E-001
Al  5.00933702E-001  3.77240638E-001  1.24991574E-001
Al  4.99906865E-001  2.49771985E-001  2.48437860E-001
Al  6.25126165E-001  3.74338531E-001  2.50813281E-001
Al  6.22781071E-001  2.50019265E-001  3.77072711E-001
Al  4.99973161E-001  3.75308126E-001  3.76031775E-001
Al  5.02471509E-001  2.48002785E-001  4.98507652E-001
Al  6.25034451E-001  3.73943263E-001  4.99947107E-001
Al  6.26956553E-001  2.48335778E-001  6.24902252E-001
Al  4.99862173E-001  3.75631518E-001  6.24908309E-001
Al  5.00309281E-001  2.51514557E-001  7.47522657E-001
Al  6.24144898E-001  3.73090162E-001  7.47542423E-001
Al  6.22781651E-001  2.51936864E-001  8.76219758E-001
Al  4.99798344E-001  3.77480107E-001  8.75097590E-001
Al  5.01605026E-001  4.97933661E-001  9.16067416E-005
Al  6.24980297E-001  6.25052887E-001  -1.63288555E-003
Al  6.25132910E-001  5.02351364E-001  1.25043253E-001
Al  4.98652414E-001  6.25019350E-001  1.26264350E-001
Al  4.99959366E-001  4.98795046E-001  2.50232346E-001
Al  6.24588128E-001  6.27366477E-001  2.47799303E-001
Al  6.22543382E-001  5.02069865E-001  3.74981037E-001
Al  5.00485186E-001  6.25069432E-001  3.74915293E-001
Al  4.97582994E-001  4.99990584E-001  4.97520056E-001
Al  6.22622826E-001  6.24324586E-001  5.00615024E-001
Al  6.25057101E-001  5.00077073E-001  6.27379542E-001
Al  5.00078790E-001  6.23711625E-001  6.24934908E-001
Al  5.01914138E-001  5.02494775E-001  7.51015372E-001
Al  6.27498490E-001  6.27454579E-001  7.49637017E-001
Al  6.24991528E-001  5.00018468E-001  8.73751312E-001
Al  5.00133557E-001  6.25161912E-001  8.75160338E-001
Al  5.01330967E-001  7.48796872E-001  7.00661128E-005
Al  6.24778062E-001  8.74777782E-001  -2.98672063E-004
Al  6.24309871E-001  7.49457893E-001  1.25870748E-001
Al  4.99490262E-001  8.76080804E-001  1.25864020E-001
Al  4.98943680E-001  7.50008408E-001  2.49943324E-001
Al  6.27325792E-001  8.75025989E-001  2.49237964E-001
Al  6.24794767E-001  7.49981991E-001  3.75017629E-001
Al  5.01453529E-001  8.75800537E-001  3.74943972E-001
Al  5.00187222E-001  7.50058798E-001  5.00019017E-001
Al  6.25318989E-001  8.74980536E-001  5.02119459E-001
Al  6.27294407E-001  7.52146477E-001  6.24961557E-001
Al  5.00019293E-001  8.74981449E-001  6.24878880E-001
Al  5.00018596E-001  7.49701938E-001  7.49828876E-001
Al  6.22507559E-001  8.73052606E-001  7.49646079E-001
Al  6.23390427E-001  7.49981889E-001  8.76691387E-001
Al  5.02159168E-001  8.74852700E-001  8.73628796E-001
Al  7.50437996E-001  1.26078380E-003  -1.88960239E-005
Al  8.72515315E-001  1.24309267E-001  1.96367374E-004
Al  8.75123690E-001  9.21701460E-005  1.25026155E-001
Al  7.49492281E-001  1.24938791E-001  1.24991379E-001
Al  7.49981837E-001  -2.38330514E-003  2.50454380E-001
Al  8.77434828E-001  1.22669875E-001  2.49335386E-001
Al  8.73221153E-001  -5.38001546E-004  3.76964995E-001
Al  7.51055647E-001  1.25853736E-001  3.74991313E-001
Al  7.47688470E-001  -2.77268778E-005  4.99969869E-001
Al  8.75009524E-001  1.24811384E-001  4.99901412E-001
Al  8.73091909E-001  2.49932399E-003  6.25009669E-001
Al  7.49974859E-001  1.26395928E-001  6.25024881E-001
Al  7.47511953E-001  -2.49866504E-004  7.51978136E-001
Al  8.75018124E-001  1.26809384E-001  7.50018111E-001
Al  8.74954459E-001  1.36508199E-003  8.76916060E-001
Al  7.50113916E-001  1.24975759E-001  8.73824842E-001
Al  7.49934457E-001  2.50039035E-001  -8.54034356E-006
Al  8.75194652E-001  3.74138135E-001  1.37065159E-003
Al  8.75719635E-001  2.52387860E-001  1.27379664E-001
Al  7.50048187E-001  3.74624113E-001  1.24319056E-001
Al  7.49161111E-001  2.49822818E-001  2.51233923E-001
Al  8.77251094E-001  3.74091765E-001  2.48614298E-001
Al  8.74870064E-001  2.49866095E-001  3.74345608E-001
Al  7.52233209E-001  3.73560400E-001  3.75267594E-001
Al  7.47520553E-001  2.49660301E-001  5.01534445E-001
Al  8.75008506E-001  3.74481444E-001  4.99971377E-001
Al  8.75087394E-001  2.48778075E-001  6.24580946E-001
Al  7.50083211E-001  3.75115489E-001  6.22517806E-001
Al  7.49951212E-001  2.49981427E-001  7.49958136E-001
Al  8.77109028E-001  3.74573652E-001  7.50176014E-001
Al  8.73295479E-001  2.49971785E-001  8.73980019E-001
Al  7.49745058E-001  3.77036380E-001  8.72779516E-001
Al  7.50556236E-001  4.99086020E-001  4.39562300E-004
Al  8.75868511E-001  6.26711573E-001  7.49167903E-005
Al  8.77494973E-001  4.97505394E-001  1.26671244E-001
Al  7.48525974E-001  6.22500964E-001  1.24372908E-001
Al  7.50667654E-001  4.97745158E-001  2.50187966E-001
Al  8.75422464E-001  6.24481510E-001  2.48530375E-001
Al  8.76400082E-001  4.98931752E-001  3.76026923E-001
Al  7.49991209E-001  6.24019389E-001  3.75044842E-001
Al  7.50020149E-001  5.00107830E-001  4.99785798E-001
Al  8.74614705E-001  6.24140439E-001  5.00018762E-001
Al  8.72836429E-001  4.99991294E-001  6.24939984E-001
Al  7.50324860E-001  6.27495228E-001  6.26941977E-001
Al  7.51609803E-001  4.99437817E-001  7.47502569E-001
Al  8.76158610E-001  6.25008378E-001  7.50009267E-001
Al  8.77172560E-001  4.98325304E-001  8.74865091E-001
Al  7.50038319E-001  6.25022172E-001  8.74981720E-001
Al  7.50866986E-001  7.52153229E-001  -4.35337656E-004
Al  8.74038310E-001  8.73154265E-001  -2.14695994E-005
Al  8.75018179E-001  7.50914711E-001  1.26192812E-001
Al  7.49946759E-001  8.76766620E-001  1.23945999E-001
Al  7.49959013E-001  7.52151965E-001  2.49850860E-001
Al  8.74991417E-001  8.74965268E-001  2.49581145E-001
Al  8.77382810E-001  7.50468929E-001  3.75557539E-001
Al  7.50251165E-001  8.75776423E-001  3.72677912E-001
Al  7.50059521E-001  7.52266090E-001  5.01424157E-001
Al  8.74520052E-001  8.74503110E-001  5.01754902E-001
Al  8.73402910E-001  7.49013326E-001  6.25018549E-001
Al  7.50247332E-001  8.75018713E-001  6.27483226E-001
Al  7.49464356E-001  7.47576057E-001  7.49931529E-001
Al  8.72606954E-001  8.77497782E-001  7.48999190E-001
Al  8.73904296E-001  7.49725626E-001  8.75018663E-001
Al  7.51915461E-001  8.75043742E-001  8.72608787E-001
K_POINTS automatic
2 2 2 1 1 1
