&CONTROL
restart_mode = 'from_scratch',
calculation = 'scf',
outdir = '/gpfs/bb/bxp912/scratch',
pseudo_dir = '/gpfs/bb/bxp912/pseudopotentials',
prefix = '2.48000000E-001',
etot_conv_thr = 1.00000000E-007,
forc_conv_thr = 1.00000000E-007,
nstep = 200,
tprnfor = .true.,
tstress = .true.,
disk_io = 'low',
/
&SYSTEM
ibrav = 14,
celldm(1) = 3.05001797E+001,
celldm(2) = 1.00000000E+000,
celldm(3) = 1.00000000E+000,
celldm(4) = 0.00000000E+000,
celldm(5) = 0.00000000E+000,
celldm(6) = 0.00000000E+000,
nat = 256,
ntyp = 1,
ecutwfc = 35,
ecutrho = 208,
occupations = 'smearing',
smearing = 'mv',
degauss = 5.00000007E-002,
/
&ELECTRONS
diagonalization = 'david',
mixing_mode = plain,
mixing_beta = 6.99999988E-001,
conv_thr = 1.00000000E-007,
/
&IONS
ion_dynamics = 'bfgs',
/
&CELL
cell_dynamics = 'bfgs',
press = 0.00000000E+000,
cell_factor = 2.00000000E+000,
/
ATOMIC_SPECIES
Al  2.69815390E+001  Al.pbe-n-kjpaw_psl.0.1.UPF
ATOMIC_POSITIONS crystal
Al  -3.40225825E-004  -2.86681157E-004  8.97820088E-004
Al  1.24833290E-001  1.25741774E-001  1.54164982E-003
Al  1.23729774E-001  -2.03347677E-003  1.24964145E-001
Al  8.38003978E-006  1.24436732E-001  1.24874283E-001
Al  -4.45339794E-004  3.00040413E-005  2.50075000E-001
Al  1.24979962E-001  1.25139762E-001  2.52011359E-001
Al  1.23301237E-001  3.53878354E-004  3.73463838E-001
Al  -2.33252312E-003  1.23266007E-001  3.77240084E-001
Al  3.06165055E-004  1.02035084E-003  5.02492274E-001
Al  1.23729226E-001  1.25357178E-001  4.97712522E-001
Al  1.24218570E-001  -8.08201235E-004  6.27496331E-001
Al  -6.43383707E-005  1.22573276E-001  6.24649939E-001
Al  -2.07489539E-005  -2.34196675E-003  7.52187334E-001
Al  1.25008371E-001  1.25128946E-001  7.48942721E-001
Al  1.24978772E-001  2.49570682E-003  8.75447487E-001
Al  -6.34986139E-004  1.25275822E-001  8.76361934E-001
Al  -4.19542382E-004  2.52267135E-001  7.68827512E-004
Al  1.27437341E-001  3.73602894E-001  -8.83585456E-004
Al  1.24510831E-001  2.51070958E-001  1.25583845E-001
Al  1.34423927E-004  3.75105979E-001  1.27425924E-001
Al  -4.04833203E-005  2.50043357E-001  2.50008378E-001
Al  1.25008746E-001  3.76161651E-001  2.47945371E-001
Al  1.26772887E-001  2.52330469E-001  3.75318343E-001
Al  -8.65623862E-004  3.74278869E-001  3.73642369E-001
Al  5.70991798E-004  2.50008894E-001  4.99894330E-001
Al  1.25617876E-001  3.73729143E-001  5.00533761E-001
Al  1.25018369E-001  2.50037196E-001  6.24979790E-001
Al  -4.94313997E-004  3.76994240E-001  6.24888875E-001
Al  -1.90470299E-005  2.47979711E-001  7.50038613E-001
Al  1.22566329E-001  3.77492940E-001  7.49991343E-001
Al  1.23547367E-001  2.47715401E-001  8.75242175E-001
Al  8.64471113E-004  3.74583128E-001  8.74719336E-001
Al  2.00772969E-003  4.98905258E-001  -1.07944899E-003
Al  1.24952069E-001  6.24961858E-001  -3.70338377E-004
Al  1.24991461E-001  5.00576177E-001  1.24264252E-001
Al  -2.40407081E-005  6.24991630E-001  1.25018281E-001
Al  1.88549888E-003  5.00018109E-001  2.49829234E-001
Al  1.25576742E-001  6.25036457E-001  2.49991629E-001
Al  1.23331142E-001  4.98991456E-001  3.72542345E-001
Al  1.91931308E-005  6.24951519E-001  3.72982172E-001
Al  -1.53019498E-004  4.99941133E-001  5.00061199E-001
Al  1.25053919E-001  6.24991519E-001  5.02239411E-001
Al  1.25027831E-001  4.98864241E-001  6.27462497E-001
Al  -2.42572331E-003  6.25981851E-001  6.22903941E-001
Al  7.82978763E-004  5.01212315E-001  7.49724038E-001
Al  1.25838728E-001  6.25552026E-001  7.49932646E-001
Al  1.27477859E-001  4.99976243E-001  8.74700102E-001
Al  -1.90222573E-005  6.24482267E-001  8.77376484E-001
Al  -1.51391514E-003  7.50073420E-001  -1.37139784E-003
Al  1.26512594E-001  8.75104916E-001  2.06185912E-005
Al  1.23195561E-001  7.49520480E-001  1.23349907E-001
Al  3.41381617E-004  8.77405308E-001  1.25743724E-001
Al  -2.38112556E-003  7.50009189E-001  2.50019395E-001
Al  1.24981245E-001  8.74920729E-001  2.48207169E-001
Al  1.26423246E-001  7.47689802E-001  3.74981725E-001
Al  -2.30336482E-004  8.74966440E-001  3.74784430E-001
Al  2.47174051E-003  7.48669770E-001  5.00264074E-001
Al  1.23403375E-001  8.74991596E-001  5.00031072E-001
Al  1.26844897E-001  7.48287456E-001  6.26453606E-001
Al  2.04250400E-003  8.74922033E-001  6.23457355E-001
Al  4.91044642E-004  7.47913521E-001  7.50316234E-001
Al  1.22563903E-001  8.75008543E-001  7.49847652E-001
Al  1.25482043E-001  7.47573997E-001  8.75019363E-001
Al  1.20037061E-004  8.75313605E-001  8.77494806E-001
Al  2.52342522E-001  1.81160247E-005  6.71201991E-005
Al  3.74991188E-001  1.25914155E-001  1.94066638E-003
Al  3.75884161E-001  4.72530666E-005  1.24971673E-001
Al  2.50334254E-001  1.25008377E-001  1.22597507E-001
Al  2.48050653E-001  2.03264456E-005  2.49400392E-001
Al  3.74483353E-001  1.25077288E-001  2.48945878E-001
Al  3.74835952E-001  -2.20519629E-005  3.75049462E-001
Al  2.49374945E-001  1.25039457E-001  3.74014318E-001
Al  2.50075414E-001  -2.68863552E-004  4.99178633E-001
Al  3.74825304E-001  1.25252872E-001  5.01624775E-001
Al  3.77036375E-001  2.01919817E-003  6.24686841E-001
Al  2.47523640E-001  1.24971963E-001  6.26028391E-001
Al  2.51038514E-001  -2.43918752E-003  7.50371968E-001
Al  3.75107335E-001  1.25008634E-001  7.52208643E-001
Al  3.75033760E-001  -2.34213775E-003  8.75362521E-001
Al  2.47793521E-001  1.25091493E-001  8.74677344E-001
Al  2.50388406E-001  2.49875694E-001  1.25685238E-004
Al  3.75009607E-001  3.77427347E-001  3.62328946E-005
Al  3.74387310E-001  2.52499302E-001  1.25791476E-001
Al  2.50008634E-001  3.74563411E-001  1.25724877E-001
Al  2.49982310E-001  2.50019169E-001  2.49656804E-001
Al  3.76419817E-001  3.74438185E-001  2.50009050E-001
Al  3.75284620E-001  2.52083927E-001  3.73612345E-001
Al  2.49837474E-001  3.76655678E-001  3.77082766E-001
Al  2.50021535E-001  2.51732231E-001  5.00029890E-001
Al  3.75856802E-001  3.76389106E-001  5.00138075E-001
Al  3.74838701E-001  2.49873406E-001  6.25023820E-001
Al  2.50348202E-001  3.74880692E-001  6.24418454E-001
Al  2.50519657E-001  2.52001564E-001  7.50033258E-001
Al  3.72680254E-001  3.76546593E-001  7.51901720E-001
Al  3.76571149E-001  2.52396735E-001  8.73442731E-001
Al  2.47614265E-001  3.74964402E-001  8.77260892E-001
Al  2.52355062E-001  5.00008737E-001  4.70420049E-004
Al  3.75008526E-001  6.22943313E-001  -7.95773617E-004
Al  3.73426474E-001  5.00066203E-001  1.27473694E-001
Al  2.50303399E-001  6.25080835E-001  1.24982398E-001
Al  2.47514857E-001  4.98497531E-001  2.49978098E-001
Al  3.75194365E-001  6.25063088E-001  2.48639471E-001
Al  3.76659511E-001  5.00994963E-001  3.77431601E-001
Al  2.49155895E-001  6.26348572E-001  3.75008658E-001
Al  2.49648975E-001  5.00904967E-001  5.02102907E-001
Al  3.74227691E-001  6.26878075E-001  4.99856372E-001
Al  3.73788355E-001  4.99981179E-001  6.24007629E-001
Al  2.50086951E-001  6.24990553E-001  6.25008464E-001
Al  2.50554044E-001  5.00458216E-001  7.49963033E-001
Al  3.74838473E-001  6.24509615E-001  7.49628503E-001
Al  3.75267756E-001  4.97584465E-001  8.74964445E-001
Al  2.49712568E-001  6.23347847E-001  8.75018350E-001
Al  2.49768630E-001  7.49887492E-001  -3.46802221E-004
Al  3.74780445E-001  8.74981888E-001  -3.83996792E-004
Al  3.74184692E-001  7.50048823E-001  1.27357736E-001
Al  2.47501691E-001  8.75038210E-001  1.22633582E-001
Al  2.50561675E-001  7.49263250E-001  2.47506809E-001
Al  3.75018621E-001  8.74916039E-001  2.50037384E-001
Al  3.77257376E-001  7.50051183E-001  3.72511851E-001
Al  2.50030227E-001  8.73898370E-001  3.75034241E-001
Al  2.49818597E-001  7.47601263E-001  5.01149632E-001
Al  3.76521983E-001  8.77479960E-001  4.97654931E-001
Al  3.76640982E-001  7.52493777E-001  6.27483545E-001
Al  2.49940309E-001  8.73246425E-001  6.22974041E-001
Al  2.50687269E-001  7.49532052E-001  7.49963127E-001
Al  3.74991385E-001  8.77088222E-001  7.48637610E-001
Al  3.76079670E-001  7.50551011E-001  8.75489332E-001
Al  2.52344908E-001  8.72956336E-001  8.76580802E-001
Al  4.99741100E-001  -7.14254101E-004  1.82913099E-005
Al  6.22999268E-001  1.24763999E-001  -6.92736246E-005
Al  6.26862635E-001  -1.46728203E-003  1.24751848E-001
Al  4.98138042E-001  1.24437936E-001  1.25091756E-001
Al  4.97527754E-001  2.49411205E-003  2.50008834E-001
Al  6.24991583E-001  1.27326883E-001  2.51293851E-001
Al  6.22538211E-001  -6.81903880E-004  3.75877456E-001
Al  5.00036922E-001  1.23308751E-001  3.74991000E-001
Al  4.99941216E-001  9.08975639E-006  5.01419069E-001
Al  6.24336452E-001  1.24978359E-001  5.01192346E-001
Al  6.26237896E-001  1.58511031E-004  6.25321025E-001
Al  5.01102154E-001  1.24242828E-001  6.25484744E-001
Al  5.00233507E-001  1.94810536E-005  7.50066248E-001
Al  6.27452991E-001  1.25249119E-001  7.49991498E-001
Al  6.24205601E-001  -6.88202698E-005  8.74981888E-001
Al  4.99534264E-001  1.24659776E-001  8.75018139E-001
Al  4.99373516E-001  2.51089327E-001  7.14175990E-004
Al  6.25074772E-001  3.75370374E-001  -1.84365961E-005
Al  6.23300821E-001  2.50443133E-001  1.25009453E-001
Al  5.00829982E-001  3.74295587E-001  1.22917472E-001
Al  5.00437634E-001  2.50049345E-001  2.47500912E-001
Al  6.24606156E-001  3.72616537E-001  2.47559229E-001
Al  6.26132132E-001  2.52139468E-001  3.72625617E-001
Al  4.99881812E-001  3.72536746E-001  3.72799332E-001
Al  5.02344191E-001  2.49589562E-001  5.00201115E-001
Al  6.25488068E-001  3.76741365E-001  5.00195662E-001
Al  6.24973487E-001  2.49846863E-001  6.27469134E-001
Al  5.01824526E-001  3.74313206E-001  6.24660394E-001
Al  4.98173965E-001  2.51123748E-001  7.50111075E-001
Al  6.25008438E-001  3.75442669E-001  7.49185052E-001
Al  6.25040802E-001  2.51455465E-001  8.73583722E-001
Al  5.01377821E-001  3.74941656E-001  8.73714399E-001
Al  4.99933950E-001  5.00018387E-001  -8.42597380E-006
Al  6.26178254E-001  6.27491790E-001  -1.12166137E-004
Al  6.24991395E-001  5.02195376E-001  1.24269456E-001
Al  4.99179059E-001  6.24447748E-001  1.24991620E-001
Al  4.99337609E-001  5.00587060E-001  2.49356277E-001
Al  6.27499940E-001  6.27374685E-001  2.49192208E-001
Al  6.22999956E-001  4.99222472E-001  3.77188354E-001
Al  4.99772737E-001  6.24916895E-001  3.74814687E-001
Al  5.00994686E-001  4.99828494E-001  5.01057599E-001
Al  6.26202091E-001  6.25092559E-001  5.02446651E-001
Al  6.25024127E-001  4.98294975E-001  6.25161725E-001
Al  5.00298055E-001  6.24979879E-001  6.24925479E-001
Al  5.01507637E-001  5.00018558E-001  7.47925840E-001
Al  6.24976695E-001  6.27484203E-001  7.48064845E-001
Al  6.24544125E-001  4.97678126E-001  8.74947913E-001
Al  5.00031861E-001  6.24336192E-001  8.75018445E-001
Al  5.02023751E-001  7.50035710E-001  8.77490212E-004
Al  6.23482867E-001  8.75450847E-001  2.22489525E-003
Al  6.26218721E-001  7.50590008E-001  1.26422817E-001
Al  5.00109702E-001  8.74980336E-001  1.26334153E-001
Al  5.00102091E-001  7.50111389E-001  2.49981691E-001
Al  6.25187673E-001  8.75365039E-001  2.49981287E-001
Al  6.26130058E-001  7.50026223E-001  3.74893112E-001
Al  4.99882993E-001  8.75113645E-001  3.76123945E-001
Al  4.97969547E-001  7.51466001E-001  5.00258670E-001
Al  6.24690689E-001  8.74917093E-001  5.00374853E-001
Al  6.24126562E-001  7.48333661E-001  6.25017392E-001
Al  5.00163023E-001  8.76744849E-001  6.25096680E-001
Al  4.98577944E-001  7.48930389E-001  7.49981736E-001
Al  6.22514857E-001  8.76878777E-001  7.49990971E-001
Al  6.25017980E-001  7.49039733E-001  8.74991225E-001
Al  4.99826647E-001  8.76340377E-001  8.73924359E-001
Al  7.50644462E-001  2.79753564E-004  3.14383064E-004
Al  8.77412654E-001  1.25027459E-001  1.71109993E-003
Al  8.73081299E-001  2.38581425E-005  1.24712242E-001
Al  7.49622333E-001  1.25719071E-001  1.26194760E-001
Al  7.52427715E-001  5.42775753E-004  2.50050409E-001
Al  8.77015027E-001  1.24981469E-001  2.49931402E-001
Al  8.74844348E-001  -2.44084048E-003  3.77147365E-001
Al  7.48052079E-001  1.26951991E-001  3.74757205E-001
Al  7.49786713E-001  -8.80224201E-004  4.97945828E-001
Al  8.72555661E-001  1.22976275E-001  4.98650357E-001
Al  8.76111189E-001  1.01791131E-003  6.24214362E-001
Al  7.50018129E-001  1.25025633E-001  6.27474589E-001
Al  7.49958716E-001  -1.00621580E-003  7.50299450E-001
Al  8.74979714E-001  1.27476997E-001  7.47678371E-001
Al  8.75008422E-001  8.93480246E-006  8.72761608E-001
Al  7.51933231E-001  1.24950977E-001  8.72514187E-001
Al  7.50395922E-001  2.52473406E-001  -2.25775470E-003
Al  8.75187519E-001  3.76164161E-001  2.87156257E-004
Al  8.73393878E-001  2.50163996E-001  1.23377388E-001
Al  7.52491001E-001  3.72807050E-001  1.25886198E-001
Al  7.50420589E-001  2.48187502E-001  2.49681913E-001
Al  8.75024214E-001  3.75062067E-001  2.49914563E-001
Al  8.74981986E-001  2.49782161E-001  3.74767188E-001
Al  7.49991323E-001  3.77422971E-001  3.76329383E-001
Al  7.50511762E-001  2.48641958E-001  5.00022958E-001
Al  8.72585327E-001  3.73405327E-001  5.00927316E-001
Al  8.75314637E-001  2.50351290E-001  6.25336017E-001
Al  7.51540184E-001  3.74861431E-001  6.22521685E-001
Al  7.50018247E-001  2.47778687E-001  7.47737244E-001
Al  8.74981892E-001  3.75018731E-001  7.50980416E-001
Al  8.75032075E-001  2.49815933E-001  8.75056329E-001
Al  7.47638884E-001  3.76395274E-001  8.74945693E-001
Al  7.50023028E-001  4.98850136E-001  -1.48888803E-003
Al  8.72732889E-001  6.26583812E-001  2.65533151E-004
Al  8.74888027E-001  5.00121468E-001  1.25659854E-001
Al  7.52413699E-001  6.24485119E-001  1.22979683E-001
Al  7.48732349E-001  5.02294984E-001  2.49980722E-001
Al  8.73896090E-001  6.24981500E-001  2.49411265E-001
Al  8.75116848E-001  4.99908415E-001  3.72935174E-001
Al  7.48092079E-001  6.24921009E-001  3.73210324E-001
Al  7.52220902E-001  4.98778141E-001  5.02478621E-001
Al  8.74339524E-001  6.25031938E-001  4.99363914E-001
Al  8.75032119E-001  5.02004878E-001  6.26533559E-001
Al  7.49317621E-001  6.24542644E-001  6.24340872E-001
Al  7.48875635E-001  4.99150116E-001  7.52498631E-001
Al  8.72578391E-001  6.23545117E-001  7.47558217E-001
Al  8.76011414E-001  5.02497950E-001  8.75197870E-001
Al  7.48903147E-001  6.27313966E-001  8.76290709E-001
Al  7.49981492E-001  7.48646632E-001  -8.23483264E-004
Al  8.76459588E-001  8.74630898E-001  1.83156092E-005
Al  8.74932416E-001  7.50432302E-001  1.23876347E-001
Al  7.50215963E-001  8.72783675E-001  1.24845261E-001
Al  7.51355150E-001  7.52471515E-001  2.47507705E-001
Al  8.77499996E-001  8.73621944E-001  2.50529683E-001
Al  8.73663568E-001  7.50009282E-001  3.74842452E-001
Al  7.50606746E-001  8.74981787E-001  3.75149921E-001
Al  7.50083333E-001  7.50054041E-001  4.98893858E-001
Al  8.74931852E-001  8.76792034E-001  5.00046708E-001
Al  8.75063119E-001  7.50766053E-001  6.27479579E-001
Al  7.50999894E-001  8.74784891E-001  6.24333520E-001
Al  7.52037041E-001  7.47931190E-001  7.49940176E-001
Al  8.75049490E-001  8.75243842E-001  7.51526803E-001
Al  8.75018248E-001  7.50802510E-001  8.74981889E-001
Al  7.50152006E-001  8.75088161E-001  8.76744272E-001
K_POINTS automatic
2 2 2 1 1 1
