&CONTROL
restart_mode = 'from_scratch',
calculation = 'scf',
outdir = '/gpfs/bb/bxp912/scratch',
pseudo_dir = '/gpfs/bb/bxp912/pseudopotentials',
prefix = '2.48000000E-001',
etot_conv_thr = 1.00000000E-007,
forc_conv_thr = 1.00000000E-007,
nstep = 200,
tprnfor = .true.,
tstress = .true.,
disk_io = 'low',
/
&SYSTEM
ibrav = 14,
celldm(1) = 3.05001797E+001,
celldm(2) = 1.00000000E+000,
celldm(3) = 1.00000000E+000,
celldm(4) = 0.00000000E+000,
celldm(5) = 0.00000000E+000,
celldm(6) = 0.00000000E+000,
nat = 256,
ntyp = 1,
ecutwfc = 35,
ecutrho = 208,
occupations = 'smearing',
smearing = 'mv',
degauss = 5.00000007E-002,
/
&ELECTRONS
diagonalization = 'david',
mixing_mode = plain,
mixing_beta = 6.99999988E-001,
conv_thr = 1.00000000E-007,
/
&IONS
ion_dynamics = 'bfgs',
/
&CELL
cell_dynamics = 'bfgs',
press = 0.00000000E+000,
cell_factor = 2.00000000E+000,
/
ATOMIC_SPECIES
Al  2.69815390E+001  Al.pbe-n-kjpaw_psl.0.1.UPF
ATOMIC_POSITIONS crystal
Al  2.21818995E-003  2.38872485E-003  9.18298403E-004
Al  1.24879628E-001  1.23067722E-001  9.01927096E-006
Al  1.27499967E-001  8.77688190E-005  1.24304609E-001
Al  1.26577669E-003  1.22590708E-001  1.25025056E-001
Al  -5.16568524E-005  1.82587051E-005  2.49689188E-001
Al  1.25446637E-001  1.27450989E-001  2.50018404E-001
Al  1.25092963E-001  -1.97377669E-003  3.76822784E-001
Al  -1.85986350E-005  1.25205072E-001  3.75061317E-001
Al  2.38331236E-003  2.01595013E-003  5.00120216E-001
Al  1.25142272E-001  1.24781043E-001  5.02361279E-001
Al  1.26810742E-001  -2.17307122E-003  6.24632237E-001
Al  6.52654842E-004  1.24991470E-001  6.22613208E-001
Al  -1.74703245E-003  2.66532013E-004  7.50238349E-001
Al  1.23926218E-001  1.24687207E-001  7.49981168E-001
Al  1.25196282E-001  3.22395163E-004  8.74882933E-001
Al  -2.20314541E-003  1.25205195E-001  8.77496696E-001
Al  -8.23266046E-005  2.47500440E-001  -5.10637946E-005
Al  1.22829311E-001  3.75025452E-001  -3.30145333E-004
Al  1.27425779E-001  2.47805885E-001  1.22874167E-001
Al  -2.07657580E-003  3.74658028E-001  1.25185755E-001
Al  -1.42853508E-004  2.50185051E-001  2.49990884E-001
Al  1.27409765E-001  3.77165768E-001  2.50148946E-001
Al  1.24652323E-001  2.49941243E-001  3.75273719E-001
Al  2.14263217E-003  3.72516117E-001  3.74259795E-001
Al  -1.96353156E-003  2.49963502E-001  5.01567658E-001
Al  1.24671876E-001  3.76198119E-001  4.99543428E-001
Al  1.26819229E-001  2.51719315E-001  6.23378790E-001
Al  8.37828467E-006  3.76782318E-001  6.22532256E-001
Al  5.68915673E-005  2.49982132E-001  7.49809097E-001
Al  1.24859457E-001  3.77086751E-001  7.51722914E-001
Al  1.24522362E-001  2.49677875E-001  8.74990489E-001
Al  -2.08182542E-003  3.74524266E-001  8.72590924E-001
Al  1.54891022E-003  5.01426667E-001  2.88508327E-005
Al  1.25008524E-001  6.25019054E-001  1.77499515E-003
Al  1.24851501E-001  5.00080737E-001  1.25024718E-001
Al  6.38052002E-005  6.27482118E-001  1.24863225E-001
Al  -1.78601705E-004  4.97924622E-001  2.48745200E-001
Al  1.22531770E-001  6.26756043E-001  2.50173471E-001
Al  1.25852648E-001  4.98916019E-001  3.76427393E-001
Al  -4.83582943E-004  6.24803415E-001  3.77095046E-001
Al  -2.16925079E-003  5.00669626E-001  4.99254179E-001
Al  1.27022876E-001  6.23415767E-001  5.01960738E-001
Al  1.25047741E-001  4.99057931E-001  6.24141326E-001
Al  -2.44302329E-003  6.25030070E-001  6.22684003E-001
Al  2.43156855E-003  5.02465065E-001  7.52385014E-001
Al  1.24955385E-001  6.25032366E-001  7.49806371E-001
Al  1.25046464E-001  5.00035639E-001  8.76828325E-001
Al  1.42708736E-003  6.25369209E-001  8.75245293E-001
Al  1.07980225E-003  7.50018537E-001  3.26267460E-004
Al  1.23584248E-001  8.74991312E-001  9.73105506E-004
Al  1.25110243E-001  7.51509292E-001  1.25055321E-001
Al  -2.06461203E-003  8.75008739E-001  1.25478151E-001
Al  1.56201196E-003  7.48075927E-001  2.50410730E-001
Al  1.27466064E-001  8.75073223E-001  2.50170471E-001
Al  1.27415542E-001  7.52449469E-001  3.73356087E-001
Al  2.58091448E-004  8.74849582E-001  3.74977659E-001
Al  -9.78636002E-004  7.49603981E-001  5.00087443E-001
Al  1.22527569E-001  8.77499982E-001  5.00259934E-001
Al  1.24885836E-001  7.50018108E-001  6.24826387E-001
Al  -2.30022068E-003  8.75162137E-001  6.26894759E-001
Al  -9.72559964E-006  7.47501792E-001  7.51583416E-001
Al  1.24216163E-001  8.75058811E-001  7.49904986E-001
Al  1.25193550E-001  7.49824219E-001  8.74990934E-001
Al  7.44770862E-005  8.74963958E-001  8.74753541E-001
Al  2.52270518E-001  -2.01298030E-005  -7.07285154E-005
Al  3.73655366E-001  1.25018155E-001  -2.69869367E-004
Al  3.73863901E-001  -1.79096108E-003  1.25068672E-001
Al  2.49610439E-001  1.27298475E-001  1.24399544E-001
Al  2.49709326E-001  -2.29669977E-003  2.48355585E-001
Al  3.77008140E-001  1.24917727E-001  2.49899323E-001
Al  3.76701692E-001  -1.81196832E-004  3.72676438E-001
Al  2.49981892E-001  1.22827538E-001  3.76933075E-001
Al  2.52036705E-001  -2.28851823E-003  5.02213775E-001
Al  3.73381525E-001  1.25120557E-001  4.99546168E-001
Al  3.76254395E-001  1.00862955E-003  6.24990636E-001
Al  2.51705900E-001  1.22802530E-001  6.27459202E-001
Al  2.48822497E-001  1.54200588E-004  7.50024379E-001
Al  3.76955808E-001  1.22907487E-001  7.50032893E-001
Al  3.75168403E-001  4.19944345E-005  8.73198789E-001
Al  2.48020488E-001  1.25877057E-001  8.75018405E-001
Al  2.50018693E-001  2.50073351E-001  -1.05528203E-003
Al  3.74132281E-001  3.77319531E-001  2.03607255E-003
Al  3.72833059E-001  2.49611642E-001  1.22949493E-001
Al  2.49991621E-001  3.74019811E-001  1.24881652E-001
Al  2.49981753E-001  2.50047506E-001  2.49981559E-001
Al  3.74422478E-001  3.77023496E-001  2.50357746E-001
Al  3.74979976E-001  2.51563829E-001  3.75111313E-001
Al  2.49611917E-001  3.75021072E-001  3.75059036E-001
Al  2.49981751E-001  2.50098555E-001  5.00105637E-001
Al  3.72625233E-001  3.72897425E-001  4.99559777E-001
Al  3.77225120E-001  2.49897036E-001  6.24990948E-001
Al  2.52005005E-001  3.72719110E-001  6.24898659E-001
Al  2.49862450E-001  2.50300975E-001  7.51038712E-001
Al  3.76082006E-001  3.72510010E-001  7.49981818E-001
Al  3.77135290E-001  2.50212551E-001  8.72975854E-001
Al  2.50054588E-001  3.75832422E-001  8.74368036E-001
Al  2.49684751E-001  5.00159462E-001  2.02047726E-005
Al  3.74184101E-001  6.25305378E-001  2.48778897E-003
Al  3.74389462E-001  4.99955881E-001  1.22648023E-001
Al  2.47787324E-001  6.25008683E-001  1.22500706E-001
Al  2.48117495E-001  4.99249797E-001  2.48085320E-001
Al  3.73611900E-001  6.24187265E-001  2.50008406E-001
Al  3.72550685E-001  4.97888929E-001  3.75008976E-001
Al  2.48941062E-001  6.24820060E-001  3.75162758E-001
Al  2.48147128E-001  4.98221384E-001  4.99683300E-001
Al  3.74456229E-001  6.24976055E-001  4.97780439E-001
Al  3.74325755E-001  5.01100147E-001  6.24164282E-001
Al  2.50103266E-001  6.25009416E-001  6.24665760E-001
Al  2.50073140E-001  5.01952471E-001  7.48565491E-001
Al  3.74981131E-001  6.25008570E-001  7.50139140E-001
Al  3.77369947E-001  5.00187187E-001  8.72625356E-001
Al  2.50027610E-001  6.25879648E-001  8.76411578E-001
Al  2.49115248E-001  7.52040118E-001  -2.14450036E-004
Al  3.76540900E-001  8.76491543E-001  -2.13128718E-004
Al  3.74991048E-001  7.50135217E-001  1.22598500E-001
Al  2.49981232E-001  8.75063480E-001  1.24165311E-001
Al  2.51012485E-001  7.47796684E-001  2.52333388E-001
Al  3.74576426E-001  8.75616730E-001  2.50008470E-001
Al  3.77330046E-001  7.49871058E-001  3.76058868E-001
Al  2.49851049E-001  8.74883457E-001  3.77461088E-001
Al  2.49955184E-001  7.49868902E-001  5.02226482E-001
Al  3.74715104E-001  8.75018111E-001  4.99711864E-001
Al  3.76389992E-001  7.48973072E-001  6.24584286E-001
Al  2.48666352E-001  8.74830686E-001  6.24981523E-001
Al  2.47558979E-001  7.49699758E-001  7.47728110E-001
Al  3.75026510E-001  8.73669134E-001  7.52495136E-001
Al  3.75689042E-001  7.52191230E-001  8.75118286E-001
Al  2.50345971E-001  8.75314981E-001  8.75008407E-001
Al  5.00030999E-001  -4.52795749E-004  -2.28715892E-003
Al  6.24599001E-001  1.25036936E-001  -8.76306501E-004
Al  6.22518008E-001  1.88539312E-003  1.24981043E-001
Al  5.00095866E-001  1.24976546E-001  1.24981851E-001
Al  5.02252444E-001  -2.39371503E-003  2.49991625E-001
Al  6.24595277E-001  1.25034462E-001  2.50008398E-001
Al  6.25319909E-001  -9.67581765E-006  3.75185993E-001
Al  4.98214072E-001  1.24981422E-001  3.73933776E-001
Al  4.97525947E-001  8.07196592E-004  4.99728618E-001
Al  6.25238409E-001  1.24937391E-001  5.02494243E-001
Al  6.25838920E-001  3.61278413E-004  6.26121080E-001
Al  5.00091270E-001  1.25019641E-001  6.25734597E-001
Al  5.01500463E-001  -2.45520388E-003  7.49310715E-001
Al  6.25141525E-001  1.25008494E-001  7.51943548E-001
Al  6.22509818E-001  -7.54426695E-004  8.77325890E-001
Al  4.99787557E-001  1.25029644E-001  8.75148815E-001
Al  4.99534557E-001  2.50069376E-001  -8.73857042E-006
Al  6.25020107E-001  3.75030867E-001  8.43435847E-006
Al  6.25121113E-001  2.50122526E-001  1.27496691E-001
Al  4.99762815E-001  3.76998879E-001  1.22536824E-001
Al  5.01642121E-001  2.51558725E-001  2.50261615E-001
Al  6.24869606E-001  3.76693622E-001  2.49430000E-001
Al  6.23880494E-001  2.49771269E-001  3.74980986E-001
Al  5.00200212E-001  3.74858138E-001  3.75019101E-001
Al  5.01960274E-001  2.48852633E-001  5.00219239E-001
Al  6.22526552E-001  3.73221429E-001  4.97555136E-001
Al  6.24948490E-001  2.51859199E-001  6.25442188E-001
Al  4.99910622E-001  3.76042473E-001  6.25161666E-001
Al  4.99638244E-001  2.49903275E-001  7.52044070E-001
Al  6.27043174E-001  3.76587763E-001  7.52490556E-001
Al  6.24693193E-001  2.50725008E-001  8.75126119E-001
Al  4.99884650E-001  3.75540846E-001  8.74704596E-001
Al  5.01637999E-001  4.99525159E-001  9.27831714E-005
Al  6.26430853E-001  6.25280891E-001  -1.28711092E-003
Al  6.24792181E-001  4.99061239E-001  1.25045885E-001
Al  4.99940787E-001  6.24836955E-001  1.24972545E-001
Al  4.99121913E-001  4.99908163E-001  2.50128611E-001
Al  6.25031256E-001  6.22509520E-001  2.50427293E-001
Al  6.22509374E-001  4.99570798E-001  3.75107625E-001
Al  4.99510920E-001  6.25486586E-001  3.75221719E-001
Al  4.98839240E-001  4.99158657E-001  4.98951450E-001
Al  6.22630955E-001  6.25116823E-001  5.00018562E-001
Al  6.23345701E-001  4.99850691E-001  6.22733683E-001
Al  5.01562715E-001  6.24863775E-001  6.25572983E-001
Al  5.00033675E-001  5.02456282E-001  7.48901404E-001
Al  6.27468072E-001  6.27496146E-001  7.48847635E-001
Al  6.25026301E-001  4.99935946E-001  8.77202104E-001
Al  4.99690553E-001  6.22505990E-001  8.77494459E-001
Al  4.98353520E-001  7.50121488E-001  6.56693080E-005
Al  6.22506522E-001  8.74962826E-001  1.51921555E-003
Al  6.26736915E-001  7.50502342E-001  1.26963499E-001
Al  5.00350345E-001  8.76395591E-001  1.25146867E-001
Al  4.97607684E-001  7.50617556E-001  2.47971743E-001
Al  6.22727623E-001  8.75223047E-001  2.49324232E-001
Al  6.24968113E-001  7.49949688E-001  3.75228105E-001
Al  4.97843052E-001  8.72504328E-001  3.72912440E-001
Al  4.99970704E-001  7.50161838E-001  5.00453432E-001
Al  6.27159317E-001  8.74961650E-001  5.00078136E-001
Al  6.24982307E-001  7.50033960E-001  6.25018690E-001
Al  5.01768786E-001  8.76501158E-001  6.24335901E-001
Al  4.99961181E-001  7.50008394E-001  7.50086003E-001
Al  6.25089760E-001  8.72657177E-001  7.49981652E-001
Al  6.23491434E-001  7.50075048E-001  8.73496019E-001
Al  4.99720453E-001  8.73424555E-001  8.72994530E-001
Al  7.51497319E-001  2.13222374E-003  -8.35691009E-005
Al  8.75063682E-001  1.24990554E-001  4.17077493E-005
Al  8.74981042E-001  5.72796031E-004  1.24707012E-001
Al  7.47503225E-001  1.25111060E-001  1.25066002E-001
Al  7.48699461E-001  -5.23268562E-004  2.48817663E-001
Al  8.76885008E-001  1.25531724E-001  2.50219647E-001
Al  8.77248274E-001  -8.66908051E-005  3.74540831E-001
Al  7.50032772E-001  1.25345943E-001  3.74925353E-001
Al  7.47592433E-001  1.78679329E-003  5.02499965E-001
Al  8.75466867E-001  1.27310117E-001  4.99759183E-001
Al  8.73019100E-001  -8.63664516E-005  6.22896753E-001
Al  7.51561867E-001  1.25008991E-001  6.22500775E-001
Al  7.52460476E-001  4.17172834E-005  7.50078266E-001
Al  8.74392034E-001  1.22727369E-001  7.50009121E-001
Al  8.76894882E-001  -3.08542523E-005  8.74946634E-001
Al  7.49966553E-001  1.23603553E-001  8.75031904E-001
Al  7.50021184E-001  2.47888351E-001  -2.00898071E-003
Al  8.77157047E-001  3.74592513E-001  8.54294728E-005
Al  8.74169320E-001  2.49836121E-001  1.25565353E-001
Al  7.49351023E-001  3.74951307E-001  1.25146858E-001
Al  7.50968567E-001  2.49340483E-001  2.49980927E-001
Al  8.74648930E-001  3.74318133E-001  2.50423757E-001
Al  8.72998084E-001  2.50072294E-001  3.74640010E-001
Al  7.50649985E-001  3.76057810E-001  3.74956128E-001
Al  7.50229759E-001  2.49645648E-001  4.99500004E-001
Al  8.76361578E-001  3.76277881E-001  5.00406909E-001
Al  8.75063845E-001  2.50226074E-001  6.24981081E-001
Al  7.50714435E-001  3.72721073E-001  6.24032713E-001
Al  7.52223660E-001  2.49804376E-001  7.52409107E-001
Al  8.77117340E-001  3.74289018E-001  7.49980396E-001
Al  8.72559531E-001  2.50804765E-001  8.74991207E-001
Al  7.52057493E-001  3.74545826E-001  8.73513775E-001
Al  7.49981467E-001  4.98466037E-001  -1.23947097E-003
Al  8.75048492E-001  6.27436247E-001  -1.82722585E-005
Al  8.77205921E-001  5.00702421E-001  1.24959000E-001
Al  7.49395942E-001  6.26612766E-001  1.25291469E-001
Al  7.48202616E-001  5.02024005E-001  2.51113730E-001
Al  8.75044676E-001  6.25258173E-001  2.50178098E-001
Al  8.75018616E-001  4.99991254E-001  3.75223079E-001
Al  7.50118057E-001  6.25326199E-001  3.74824348E-001
Al  7.47535962E-001  5.02448949E-001  5.02302931E-001
Al  8.75090000E-001  6.26918151E-001  4.99929474E-001
Al  8.73985790E-001  5.02227109E-001  6.24981786E-001
Al  7.49879164E-001  6.24978821E-001  6.24129846E-001
Al  7.48799034E-001  5.00018434E-001  7.50078419E-001
Al  8.75018244E-001  6.25513421E-001  7.51926485E-001
Al  8.72500887E-001  5.00177772E-001  8.75163787E-001
Al  7.49991621E-001  6.24851343E-001  8.74841028E-001
Al  7.49077021E-001  7.50028551E-001  1.79550399E-003
Al  8.75104798E-001  8.77096995E-001  9.01619720E-004
Al  8.77495359E-001  7.47572161E-001  1.26648154E-001
Al  7.50008434E-001  8.74895321E-001  1.24785874E-001
Al  7.51310661E-001  7.47925669E-001  2.49252269E-001
Al  8.74675585E-001  8.77457098E-001  2.50273314E-001
Al  8.72601246E-001  7.47583257E-001  3.74153177E-001
Al  7.52284903E-001  8.75042213E-001  3.74982183E-001
Al  7.50040938E-001  7.50202124E-001  4.99846743E-001
Al  8.77240955E-001  8.74247822E-001  5.00019914E-001
Al  8.74991527E-001  7.51263861E-001  6.26304168E-001
Al  7.50018466E-001  8.74729326E-001  6.25039689E-001
Al  7.48912155E-001  7.48960043E-001  7.50369518E-001
Al  8.74737718E-001  8.75055558E-001  7.47791466E-001
Al  8.72508474E-001  7.51326577E-001  8.74829220E-001
Al  7.50113833E-001  8.76299307E-001  8.74886174E-001
K_POINTS automatic
2 2 2 1 1 1
