&CONTROL
restart_mode = 'from_scratch',
calculation = 'scf',
outdir = '/gpfs/bb/bxp912/scratch',
pseudo_dir = '/gpfs/bb/bxp912/pseudopotentials',
prefix = '2.48000000E-001',
etot_conv_thr = 1.00000000E-007,
forc_conv_thr = 1.00000000E-007,
nstep = 200,
tprnfor = .true.,
tstress = .true.,
disk_io = 'low',
/
&SYSTEM
ibrav = 14,
celldm(1) = 3.05001797E+001,
celldm(2) = 1.00000000E+000,
celldm(3) = 1.00000000E+000,
celldm(4) = 0.00000000E+000,
celldm(5) = 0.00000000E+000,
celldm(6) = 0.00000000E+000,
nat = 256,
ntyp = 1,
ecutwfc = 35,
ecutrho = 208,
occupations = 'smearing',
smearing = 'mv',
degauss = 5.00000007E-002,
/
&ELECTRONS
diagonalization = 'david',
mixing_mode = plain,
mixing_beta = 6.99999988E-001,
conv_thr = 1.00000000E-007,
/
&IONS
ion_dynamics = 'bfgs',
/
&CELL
cell_dynamics = 'bfgs',
press = 0.00000000E+000,
cell_factor = 2.00000000E+000,
/
ATOMIC_SPECIES
Al  2.69815390E+001  Al.pbe-n-kjpaw_psl.0.1.UPF
ATOMIC_POSITIONS crystal
Al  -2.34496507E-004  -1.14879253E-003  2.44886171E-003
Al  1.25058069E-001  1.26350727E-001  -2.26266392E-003
Al  1.22621870E-001  -8.49626561E-004  1.23535886E-001
Al  2.08972487E-003  1.27159147E-001  1.23755465E-001
Al  -1.00812047E-003  2.06525176E-003  2.49933828E-001
Al  1.25018232E-001  1.24980920E-001  2.51204361E-001
Al  1.24793567E-001  1.86330898E-005  3.74648278E-001
Al  -2.19019884E-004  1.26773846E-001  3.75769052E-001
Al  -1.93467889E-003  2.08111690E-003  4.99330077E-001
Al  1.24981492E-001  1.26441289E-001  5.00169460E-001
Al  1.24712967E-001  -2.81639188E-004  6.25067540E-001
Al  2.24561129E-003  1.24913655E-001  6.24581176E-001
Al  2.22466079E-005  7.36163707E-004  7.50835213E-001
Al  1.25348133E-001  1.24980480E-001  7.50018152E-001
Al  1.27291516E-001  9.35034063E-004  8.76653964E-001
Al  3.95175954E-004  1.26135981E-001  8.73186325E-001
Al  1.38972868E-003  2.47673913E-001  5.61570330E-004
Al  1.26303179E-001  3.75252253E-001  7.10787759E-004
Al  1.24484315E-001  2.49088886E-001  1.25886725E-001
Al  -3.67242178E-005  3.73276720E-001  1.27480955E-001
Al  -1.65582147E-003  2.52442971E-001  2.47833339E-001
Al  1.24676869E-001  3.74043767E-001  2.50009454E-001
Al  1.25896102E-001  2.50024845E-001  3.75077173E-001
Al  1.06896594E-003  3.77302133E-001  3.75039079E-001
Al  2.48635855E-004  2.49280852E-001  5.00036612E-001
Al  1.25368821E-001  3.73594696E-001  5.00226384E-001
Al  1.25467352E-001  2.50008651E-001  6.25018790E-001
Al  2.01488123E-004  3.74891429E-001  6.25086016E-001
Al  4.64287134E-004  2.50690302E-001  7.49980662E-001
Al  1.25421180E-001  3.75774587E-001  7.51222241E-001
Al  1.27493568E-001  2.51825824E-001  8.72629216E-001
Al  1.99232944E-005  3.76135093E-001  8.74881047E-001
Al  1.08090700E-004  5.00116840E-001  2.40800525E-003
Al  1.25422274E-001  6.23148035E-001  -1.47925556E-004
Al  1.24655747E-001  4.97703018E-001  1.26908749E-001
Al  2.07414313E-003  6.24822182E-001  1.24972700E-001
Al  2.38716325E-003  5.01200139E-001  2.49951356E-001
Al  1.23042849E-001  6.25072134E-001  2.48763084E-001
Al  1.23946645E-001  4.97533303E-001  3.74928750E-001
Al  -2.97456587E-005  6.25469646E-001  3.74922446E-001
Al  -7.78441243E-005  5.00142939E-001  4.99442639E-001
Al  1.24700614E-001  6.25380385E-001  4.97782261E-001
Al  1.23187393E-001  5.01341915E-001  6.24991501E-001
Al  -5.58565358E-005  6.24113257E-001  6.24990836E-001
Al  -1.67020817E-003  5.01655050E-001  7.49550904E-001
Al  1.27015183E-001  6.25037610E-001  7.52494813E-001
Al  1.27419990E-001  4.97932066E-001  8.74733997E-001
Al  1.56385584E-003  6.25046903E-001  8.76155685E-001
Al  -2.47201593E-003  7.49957484E-001  -1.57995232E-003
Al  1.25604778E-001  8.72591154E-001  -1.93290925E-004
Al  1.22504305E-001  7.49777560E-001  1.27481284E-001
Al  5.61950248E-005  8.75653769E-001  1.24524116E-001
Al  4.37454109E-004  7.47619886E-001  2.50346992E-001
Al  1.25405844E-001  8.75757202E-001  2.49313878E-001
Al  1.25008882E-001  7.48098600E-001  3.74799265E-001
Al  -4.03949444E-005  8.75880711E-001  3.73635186E-001
Al  2.76846804E-005  7.50008388E-001  4.98510095E-001
Al  1.24957614E-001  8.76036187E-001  4.97653673E-001
Al  1.23627621E-001  7.49004540E-001  6.25367341E-001
Al  -1.97931797E-003  8.73011972E-001  6.22587348E-001
Al  1.89560323E-005  7.50431849E-001  7.50064859E-001
Al  1.22581945E-001  8.75044375E-001  7.48120784E-001
Al  1.24991270E-001  7.49595248E-001  8.76277585E-001
Al  -6.29476257E-004  8.74991288E-001  8.72705788E-001
Al  2.51978568E-001  -1.38392783E-004  -1.82228028E-005
Al  3.74939432E-001  1.24751403E-001  2.00911716E-003
Al  3.73873807E-001  -3.67663374E-004  1.25107894E-001
Al  2.50088768E-001  1.25008371E-001  1.25154324E-001
Al  2.49748402E-001  2.30712642E-003  2.49038121E-001
Al  3.74190481E-001  1.25008466E-001  2.48900466E-001
Al  3.74736104E-001  1.75784108E-003  3.74662498E-001
Al  2.50165833E-001  1.25019459E-001  3.74611379E-001
Al  2.49991355E-001  1.13586591E-003  4.98944575E-001
Al  3.75035534E-001  1.22864442E-001  5.00942242E-001
Al  3.73510664E-001  -4.73723416E-005  6.25858366E-001
Al  2.47529018E-001  1.25038301E-001  6.24991443E-001
Al  2.49991368E-001  -2.44788626E-003  7.47557530E-001
Al  3.75072726E-001  1.23989280E-001  7.49881775E-001
Al  3.76065698E-001  -1.13743783E-003  8.75465196E-001
Al  2.50120948E-001  1.26550115E-001  8.75859957E-001
Al  2.49305992E-001  2.50938741E-001  -9.66127167E-004
Al  3.75822846E-001  3.74905907E-001  -9.32695264E-005
Al  3.75065898E-001  2.48958243E-001  1.27095594E-001
Al  2.52492586E-001  3.73833081E-001  1.23298451E-001
Al  2.49384577E-001  2.49912083E-001  2.49942007E-001
Al  3.73764657E-001  3.76479273E-001  2.51147562E-001
Al  3.75020024E-001  2.50545319E-001  3.74121214E-001
Al  2.49732200E-001  3.77355742E-001  3.75094186E-001
Al  2.50203799E-001  2.49445071E-001  5.00042075E-001
Al  3.74495387E-001  3.75018122E-001  5.01992636E-001
Al  3.74808098E-001  2.49055747E-001  6.26684574E-001
Al  2.52333228E-001  3.72508394E-001  6.22516757E-001
Al  2.49991470E-001  2.50018342E-001  7.50881409E-001
Al  3.72713084E-001  3.74924602E-001  7.49453101E-001
Al  3.75065001E-001  2.52099099E-001  8.72765406E-001
Al  2.52384826E-001  3.76258985E-001  8.73003742E-001
Al  2.48484742E-001  4.98456880E-001  1.43764139E-003
Al  3.74363403E-001  6.24981872E-001  -2.45455184E-003
Al  3.77499543E-001  4.98804258E-001  1.22694673E-001
Al  2.49981304E-001  6.25372724E-001  1.25030492E-001
Al  2.49981866E-001  4.98781107E-001  2.47501853E-001
Al  3.72642570E-001  6.24981406E-001  2.48592378E-001
Al  3.74598329E-001  4.97506635E-001  3.75018596E-001
Al  2.49534002E-001  6.25174725E-001  3.74110099E-001
Al  2.49576188E-001  5.00289282E-001  4.98880546E-001
Al  3.74991270E-001  6.22605351E-001  4.99843011E-001
Al  3.74672305E-001  4.99755168E-001  6.27082341E-001
Al  2.49947887E-001  6.24564898E-001  6.23568436E-001
Al  2.48901674E-001  4.99835981E-001  7.50786666E-001
Al  3.75758407E-001  6.26198979E-001  7.50899503E-001
Al  3.75044632E-001  4.99991532E-001  8.73331279E-001
Al  2.49882269E-001  6.24981579E-001  8.77469020E-001
Al  2.49928114E-001  7.49685078E-001  -2.07070357E-003
Al  3.74962466E-001  8.74832450E-001  2.09415785E-004
Al  3.73822148E-001  7.50028124E-001  1.24640736E-001
Al  2.52195243E-001  8.74057297E-001  1.23412803E-001
Al  2.50008679E-001  7.50018109E-001  2.50395836E-001
Al  3.73859399E-001  8.74603803E-001  2.49923630E-001
Al  3.75894869E-001  7.52001290E-001  3.75017501E-001
Al  2.50228163E-001  8.77311744E-001  3.74754578E-001
Al  2.49991628E-001  7.51604094E-001  5.00080170E-001
Al  3.76296347E-001  8.77491852E-001  4.99061461E-001
Al  3.73831960E-001  7.51106672E-001  6.26650430E-001
Al  2.49932886E-001  8.77497269E-001  6.24980735E-001
Al  2.49990473E-001  7.48900419E-001  7.52341937E-001
Al  3.76831372E-001  8.73112831E-001  7.48282326E-001
Al  3.75147199E-001  7.50173340E-001  8.77064231E-001
Al  2.50072416E-001  8.76774312E-001  8.75993053E-001
Al  4.99736916E-001  2.47005227E-003  -1.97588124E-003
Al  6.26372664E-001  1.22627459E-001  1.21902106E-003
Al  6.25023458E-001  -1.17846145E-003  1.25018190E-001
Al  4.97758344E-001  1.24489721E-001  1.24980081E-001
Al  5.00018502E-001  1.98897591E-004  2.51746864E-001
Al  6.26713646E-001  1.23452117E-001  2.52289804E-001
Al  6.25008955E-001  2.14360319E-003  3.77093634E-001
Al  5.00221388E-001  1.25024733E-001  3.73219103E-001
Al  5.01061992E-001  5.48200025E-004  5.01990183E-001
Al  6.26132908E-001  1.25305005E-001  5.01445694E-001
Al  6.25584300E-001  1.36094785E-004  6.26269018E-001
Al  5.00053695E-001  1.24802380E-001  6.25283618E-001
Al  4.98400883E-001  -1.83147984E-004  7.51906064E-001
Al  6.24990821E-001  1.23520163E-001  7.50272182E-001
Al  6.22521363E-001  -1.72816200E-003  8.75173770E-001
Al  4.98391189E-001  1.25290237E-001  8.75249055E-001
Al  4.99969067E-001  2.50172968E-001  -5.86537664E-004
Al  6.25967826E-001  3.74273621E-001  5.75250283E-005
Al  6.24973430E-001  2.50068659E-001  1.23430510E-001
Al  4.99066470E-001  3.74875685E-001  1.22969538E-001
Al  5.00438080E-001  2.51327603E-001  2.49991202E-001
Al  6.24754456E-001  3.75701692E-001  2.52345755E-001
Al  6.22848201E-001  2.47989777E-001  3.75026214E-001
Al  4.99870909E-001  3.76669953E-001  3.74601589E-001
Al  5.00287509E-001  2.52448580E-001  5.02285257E-001
Al  6.26945868E-001  3.77422767E-001  4.99991615E-001
Al  6.24005732E-001  2.50832094E-001  6.23225962E-001
Al  5.00073454E-001  3.74981007E-001  6.26573825E-001
Al  4.97745086E-001  2.49990418E-001  7.51657286E-001
Al  6.24933693E-001  3.73299779E-001  7.50125617E-001
Al  6.26087290E-001  2.50138580E-001  8.77488608E-001
Al  4.99602466E-001  3.74789043E-001  8.75854461E-001
Al  5.01470607E-001  4.99268501E-001  -2.14254677E-003
Al  6.25131462E-001  6.24784514E-001  -1.32601990E-003
Al  6.25018927E-001  5.00362467E-001  1.25047291E-001
Al  4.99633980E-001  6.26634948E-001  1.27244891E-001
Al  4.98441277E-001  4.99971634E-001  2.50008908E-001
Al  6.23543066E-001  6.24932991E-001  2.49301102E-001
Al  6.24991232E-001  4.99982593E-001  3.72981506E-001
Al  4.97861085E-001  6.26073604E-001  3.75267240E-001
Al  5.01953767E-001  4.99991089E-001  4.97649838E-001
Al  6.24465639E-001  6.24991565E-001  5.00304234E-001
Al  6.22567059E-001  5.00008457E-001  6.22520067E-001
Al  4.99991130E-001  6.25071777E-001  6.24857615E-001
Al  4.97974745E-001  5.02442112E-001  7.49324066E-001
Al  6.24754462E-001  6.25074784E-001  7.50359750E-001
Al  6.24008346E-001  4.97655262E-001  8.73739013E-001
Al  4.98581150E-001  6.26786647E-001  8.72823925E-001
Al  4.97967007E-001  7.50242264E-001  4.12414928E-004
Al  6.22683451E-001  8.74722387E-001  -8.90287947E-006
Al  6.26672616E-001  7.50018723E-001  1.24928498E-001
Al  5.00278473E-001  8.77274554E-001  1.26209257E-001
Al  5.01923446E-001  7.50018117E-001  2.51019047E-001
Al  6.26959565E-001  8.75020208E-001  2.50017953E-001
Al  6.23721416E-001  7.49957429E-001  3.74890960E-001
Al  4.97527442E-001  8.75060742E-001  3.77198687E-001
Al  4.99401854E-001  7.50313511E-001  4.99960751E-001
Al  6.24991394E-001  8.75125152E-001  5.00445702E-001
Al  6.25117494E-001  7.49893035E-001  6.27499307E-001
Al  4.98126942E-001  8.75008372E-001  6.26006560E-001
Al  4.98996467E-001  7.50009652E-001  7.51246535E-001
Al  6.24963793E-001  8.75161885E-001  7.50008544E-001
Al  6.24981890E-001  7.50470353E-001  8.76592286E-001
Al  5.00019092E-001  8.76756708E-001  8.76484317E-001
Al  7.51949420E-001  -1.15391194E-004  -4.24404600E-004
Al  8.74972725E-001  1.24425911E-001  -1.02864131E-004
Al  8.75388175E-001  4.39557206E-005  1.25354104E-001
Al  7.50247848E-001  1.24863388E-001  1.24967457E-001
Al  7.48287188E-001  -2.01388353E-003  2.49910715E-001
Al  8.73011501E-001  1.26274513E-001  2.50869460E-001
Al  8.73528735E-001  -9.40497260E-005  3.75149733E-001
Al  7.48275751E-001  1.26154290E-001  3.74428037E-001
Al  7.48944912E-001  -4.29149705E-005  4.98293336E-001
Al  8.72994422E-001  1.26185734E-001  5.00901492E-001
Al  8.76703397E-001  2.34876714E-003  6.24615025E-001
Al  7.50342632E-001  1.24930848E-001  6.23343839E-001
Al  7.49978794E-001  -4.08636598E-004  7.50752956E-001
Al  8.75018972E-001  1.25032099E-001  7.48139421E-001
Al  8.75008804E-001  1.30237908E-003  8.75008493E-001
Al  7.50575171E-001  1.25021195E-001  8.76958650E-001
Al  7.50083181E-001  2.49971393E-001  -7.67172093E-005
Al  8.74586520E-001  3.74981786E-001  2.47395527E-003
Al  8.75017662E-001  2.50188157E-001  1.26554671E-001
Al  7.49991341E-001  3.72500071E-001  1.25029804E-001
Al  7.50018205E-001  2.49980430E-001  2.49909255E-001
Al  8.76670331E-001  3.74981875E-001  2.49412896E-001
Al  8.74957036E-001  2.52036407E-001  3.74980085E-001
Al  7.49531611E-001  3.73931921E-001  3.77300890E-001
Al  7.48668613E-001  2.49386019E-001  4.98733350E-001
Al  8.75021163E-001  3.75026786E-001  5.00491704E-001
Al  8.73003071E-001  2.47773719E-001  6.24276592E-001
Al  7.49991206E-001  3.72689173E-001  6.22601391E-001
Al  7.49451072E-001  2.50563105E-001  7.48389455E-001
Al  8.75899758E-001  3.77015438E-001  7.50020310E-001
Al  8.74226551E-001  2.48283852E-001  8.75632725E-001
Al  7.48955957E-001  3.74936750E-001  8.76285416E-001
Al  7.49990976E-001  5.00304982E-001  -1.53359064E-003
Al  8.74990294E-001  6.24933335E-001  -8.37018241E-006
Al  8.75169190E-001  4.98575349E-001  1.22980231E-001
Al  7.52341943E-001  6.26511560E-001  1.26650699E-001
Al  7.50020430E-001  4.99973491E-001  2.50078942E-001
Al  8.77170544E-001  6.25008611E-001  2.49969904E-001
Al  8.72671457E-001  5.00394652E-001  3.74233841E-001
Al  7.51806131E-001  6.24666054E-001  3.77318676E-001
Al  7.48925002E-001  4.97504482E-001  5.02483115E-001
Al  8.73382160E-001  6.27014394E-001  5.00534170E-001
Al  8.74978203E-001  4.97749694E-001  6.26679727E-001
Al  7.50018714E-001  6.24894061E-001  6.26590880E-001
Al  7.47896531E-001  5.01573274E-001  7.50044590E-001
Al  8.73272521E-001  6.25300332E-001  7.50035260E-001
Al  8.72563187E-001  4.99293042E-001  8.75019010E-001
Al  7.49961891E-001  6.25630894E-001  8.77110475E-001
Al  7.51399948E-001  7.47563673E-001  3.95179489E-005
Al  8.76029329E-001  8.75018521E-001  1.25866853E-003
Al  8.75410909E-001  7.49505456E-001  1.25287757E-001
Al  7.50352082E-001  8.75167343E-001  1.23078091E-001
Al  7.49786097E-001  7.49441393E-001  2.49991441E-001
Al  8.74836034E-001  8.72595736E-001  2.49842910E-001
Al  8.75008406E-001  7.51238618E-001  3.75025583E-001
Al  7.52480701E-001  8.77146761E-001  3.72677638E-001
Al  7.47508874E-001  7.49906824E-001  5.01076258E-001
Al  8.75211593E-001  8.74894534E-001  5.00367941E-001
Al  8.72989319E-001  7.48164266E-001  6.25548528E-001
Al  7.50107928E-001  8.73896141E-001  6.23440875E-001
Al  7.48960720E-001  7.49991594E-001  7.48351611E-001
Al  8.75480879E-001  8.75692882E-001  7.49534297E-001
Al  8.74595309E-001  7.51953611E-001  8.74890961E-001
Al  7.49595093E-001  8.75280234E-001  8.74827611E-001
K_POINTS automatic
2 2 2 1 1 1
