&CONTROL
restart_mode = 'from_scratch',
calculation = 'scf',
outdir = '/gpfs/bb/bxp912/scratch',
pseudo_dir = '/gpfs/bb/bxp912/pseudopotentials',
prefix = '2.48000000E-001',
etot_conv_thr = 1.00000000E-007,
forc_conv_thr = 1.00000000E-007,
nstep = 200,
tprnfor = .true.,
tstress = .true.,
disk_io = 'low',
/
&SYSTEM
ibrav = 14,
celldm(1) = 3.05001797E+001,
celldm(2) = 1.00000000E+000,
celldm(3) = 1.00000000E+000,
celldm(4) = 0.00000000E+000,
celldm(5) = 0.00000000E+000,
celldm(6) = 0.00000000E+000,
nat = 256,
ntyp = 1,
ecutwfc = 35,
ecutrho = 208,
occupations = 'smearing',
smearing = 'mv',
degauss = 5.00000007E-002,
/
&ELECTRONS
diagonalization = 'david',
mixing_mode = plain,
mixing_beta = 6.99999988E-001,
conv_thr = 1.00000000E-007,
/
&IONS
ion_dynamics = 'bfgs',
/
&CELL
cell_dynamics = 'bfgs',
press = 0.00000000E+000,
cell_factor = 2.00000000E+000,
/
ATOMIC_SPECIES
Al  2.69815390E+001  Al.pbe-n-kjpaw_psl.0.1.UPF
ATOMIC_POSITIONS crystal
Al  -6.51630186E-004  1.92260249E-003  -2.14536600E-003
Al  1.24191818E-001  1.24981876E-001  -1.98288036E-005
Al  1.24955652E-001  2.31327386E-004  1.23130792E-001
Al  8.57139911E-006  1.25693698E-001  1.26008911E-001
Al  -2.37460533E-003  1.00056084E-004  2.49652713E-001
Al  1.25497868E-001  1.26986134E-001  2.47863686E-001
Al  1.24021901E-001  5.63041598E-004  3.75671264E-001
Al  6.55113647E-004  1.24353147E-001  3.73327944E-001
Al  -3.24895016E-005  2.49491468E-003  5.00029180E-001
Al  1.24813559E-001  1.24837998E-001  4.99361406E-001
Al  1.25123830E-001  -1.83273296E-005  6.24187447E-001
Al  1.16177693E-003  1.25116694E-001  6.22517811E-001
Al  3.99670326E-005  -8.39850360E-006  7.52466040E-001
Al  1.24677401E-001  1.24916013E-001  7.47887353E-001
Al  1.24981309E-001  2.30555716E-003  8.75045184E-001
Al  2.35969776E-003  1.25204523E-001  8.74981187E-001
Al  -5.12165481E-004  2.52354097E-001  9.41553404E-005
Al  1.24813569E-001  3.76823004E-001  -1.27690138E-004
Al  1.25033558E-001  2.47510340E-001  1.24827666E-001
Al  -2.22956250E-003  3.75018562E-001  1.24981893E-001
Al  3.40336634E-004  2.49981573E-001  2.48514599E-001
Al  1.25163801E-001  3.74576716E-001  2.50229955E-001
Al  1.22766405E-001  2.47667473E-001  3.74388889E-001
Al  4.58150486E-004  3.74980948E-001  3.74598770E-001
Al  1.76852248E-003  2.50054231E-001  5.02436046E-001
Al  1.24991624E-001  3.74956245E-001  4.99165495E-001
Al  1.25404341E-001  2.47611829E-001  6.22500331E-001
Al  1.29684005E-003  3.76218888E-001  6.24991125E-001
Al  -2.49960228E-003  2.50138286E-001  7.52112566E-001
Al  1.24896806E-001  3.75072876E-001  7.50811519E-001
Al  1.25245724E-001  2.50008520E-001  8.75239454E-001
Al  -7.35757314E-004  3.75812689E-001  8.75062773E-001
Al  9.71795188E-004  5.01586602E-001  2.23571805E-003
Al  1.24991319E-001  6.25008416E-001  8.98576239E-004
Al  1.24758669E-001  5.00065331E-001  1.26067206E-001
Al  3.79921397E-004  6.27102945E-001  1.24289001E-001
Al  -7.01316539E-004  5.00978048E-001  2.48260624E-001
Al  1.25008404E-001  6.25941643E-001  2.50161690E-001
Al  1.26998328E-001  4.99787066E-001  3.73456644E-001
Al  -2.46047932E-003  6.25405973E-001  3.74970765E-001
Al  -5.01145149E-004  5.01949838E-001  4.99525417E-001
Al  1.24919516E-001  6.24054739E-001  4.99525777E-001
Al  1.25086323E-001  5.00137320E-001  6.24269508E-001
Al  -9.19907253E-004  6.24579685E-001  6.22546376E-001
Al  9.45778842E-005  4.97597197E-001  7.49943609E-001
Al  1.25022482E-001  6.24010619E-001  7.49981099E-001
Al  1.24129930E-001  4.99975378E-001  8.73863571E-001
Al  7.44390319E-004  6.24981970E-001  8.77416813E-001
Al  -4.80665864E-004  7.50037367E-001  5.34832725E-004
Al  1.25018354E-001  8.75165419E-001  -1.81138186E-005
Al  1.22558180E-001  7.48512669E-001  1.24981788E-001
Al  2.31266262E-003  8.74912879E-001  1.26729603E-001
Al  -5.98563150E-004  7.48850160E-001  2.51971249E-001
Al  1.25684875E-001  8.73834436E-001  2.47503139E-001
Al  1.22948631E-001  7.50019599E-001  3.75019345E-001
Al  -2.87796284E-004  8.75049842E-001  3.75032085E-001
Al  -6.52343116E-004  7.50372252E-001  5.01425949E-001
Al  1.23145911E-001  8.74524904E-001  5.01914783E-001
Al  1.22502900E-001  7.50162900E-001  6.22518006E-001
Al  -2.46494315E-003  8.73140611E-001  6.23193144E-001
Al  2.46037115E-003  7.49111879E-001  7.49991517E-001
Al  1.25597335E-001  8.75022422E-001  7.47726207E-001
Al  1.22669912E-001  7.49890638E-001  8.72777728E-001
Al  1.12239566E-003  8.74772300E-001  8.75233199E-001
Al  2.51590423E-001  2.22007724E-004  1.13919237E-003
Al  3.72554647E-001  1.27345469E-001  -4.60297444E-004
Al  3.75711377E-001  -6.56327062E-004  1.25009471E-001
Al  2.51183677E-001  1.25008461E-001  1.23850491E-001
Al  2.50742203E-001  4.62001550E-004  2.47574046E-001
Al  3.74732501E-001  1.25213463E-001  2.47720381E-001
Al  3.74824605E-001  -2.69472244E-005  3.73510537E-001
Al  2.50061042E-001  1.24990403E-001  3.73160883E-001
Al  2.52352603E-001  -2.91444113E-004  4.98828578E-001
Al  3.75210850E-001  1.26582778E-001  4.98747856E-001
Al  3.74444192E-001  8.33995325E-004  6.26921022E-001
Al  2.50354898E-001  1.24990195E-001  6.24770110E-001
Al  2.52320364E-001  1.82777053E-005  7.50018111E-001
Al  3.72932235E-001  1.25845013E-001  7.50820600E-001
Al  3.73444936E-001  -5.86776231E-004  8.75146159E-001
Al  2.50343656E-001  1.25157291E-001  8.77299672E-001
Al  2.52432442E-001  2.50223838E-001  2.08082296E-004
Al  3.75389278E-001  3.75117873E-001  7.22690177E-004
Al  3.74991545E-001  2.49093808E-001  1.24350100E-001
Al  2.48677382E-001  3.73167497E-001  1.25034808E-001
Al  2.52052950E-001  2.51053046E-001  2.50414577E-001
Al  3.75024876E-001  3.76010932E-001  2.50718330E-001
Al  3.77457127E-001  2.50145312E-001  3.72500510E-001
Al  2.49991619E-001  3.75588128E-001  3.72831861E-001
Al  2.47911958E-001  2.52249575E-001  4.98903618E-001
Al  3.74913149E-001  3.72501036E-001  4.99991417E-001
Al  3.75679744E-001  2.48595970E-001  6.25109316E-001
Al  2.49577668E-001  3.74981260E-001  6.25183309E-001
Al  2.50531306E-001  2.51239167E-001  7.49711631E-001
Al  3.75279404E-001  3.73092659E-001  7.49665393E-001
Al  3.74072923E-001  2.48005747E-001  8.74190487E-001
Al  2.49965760E-001  3.74810838E-001  8.75388262E-001
Al  2.50075730E-001  4.99882910E-001  -2.49995709E-003
Al  3.75099133E-001  6.24112745E-001  -1.81580416E-005
Al  3.72978243E-001  4.99955699E-001  1.22562475E-001
Al  2.50018624E-001  6.27301697E-001  1.25027752E-001
Al  2.49780564E-001  4.99955966E-001  2.52461836E-001
Al  3.72561323E-001  6.23883557E-001  2.49413233E-001
Al  3.74981787E-001  4.99537924E-001  3.74658950E-001
Al  2.49169093E-001  6.25975594E-001  3.76073931E-001
Al  2.49991271E-001  4.99794483E-001  4.97652815E-001
Al  3.73863509E-001  6.24650846E-001  5.00255985E-001
Al  3.74569352E-001  5.00008385E-001  6.24991615E-001
Al  2.47925121E-001  6.22851125E-001  6.24897248E-001
Al  2.48596287E-001  5.00439195E-001  7.49982676E-001
Al  3.72965161E-001  6.22912887E-001  7.51141305E-001
Al  3.76529536E-001  4.99184378E-001  8.74991278E-001
Al  2.49806580E-001  6.22624446E-001  8.73742850E-001
Al  2.50336844E-001  7.48094238E-001  4.00738645E-004
Al  3.74267562E-001  8.77476443E-001  -8.93966001E-006
Al  3.74930296E-001  7.51645677E-001  1.22659748E-001
Al  2.52146505E-001  8.75221955E-001  1.27105137E-001
Al  2.50125204E-001  7.52447831E-001  2.50284973E-001
Al  3.74981820E-001  8.74847910E-001  2.50018547E-001
Al  3.76116487E-001  7.49991460E-001  3.75300501E-001
Al  2.50151718E-001  8.75018557E-001  3.75138278E-001
Al  2.49976625E-001  7.52499885E-001  5.02028576E-001
Al  3.75819248E-001  8.76793118E-001  4.98968157E-001
Al  3.72810950E-001  7.52498903E-001  6.25873470E-001
Al  2.49762854E-001  8.74481236E-001  6.24991159E-001
Al  2.50319526E-001  7.49964341E-001  7.47867824E-001
Al  3.77322379E-001  8.75018638E-001  7.52238781E-001
Al  3.72505332E-001  7.50750255E-001  8.74172580E-001
Al  2.48682215E-001  8.74658350E-001  8.75319014E-001
Al  4.97502858E-001  -8.88451431E-006  -1.68888857E-004
Al  6.22528664E-001  1.23302341E-001  2.84777280E-004
Al  6.23471318E-001  -2.12797148E-003  1.25236961E-001
Al  4.99282361E-001  1.24981330E-001  1.24990484E-001
Al  4.98436947E-001  -1.27038032E-003  2.47520662E-001
Al  6.24962596E-001  1.25188653E-001  2.52417958E-001
Al  6.26908875E-001  2.21073139E-003  3.75277170E-001
Al  4.98318481E-001  1.24967649E-001  3.77334547E-001
Al  4.98304162E-001  1.37047170E-003  4.98372128E-001
Al  6.25040911E-001  1.24981811E-001  5.00748205E-001
Al  6.23193251E-001  9.58330835E-006  6.24929599E-001
Al  4.99058632E-001  1.26651514E-001  6.25137754E-001
Al  4.98926400E-001  1.15785359E-003  7.49990228E-001
Al  6.25009485E-001  1.25423600E-001  7.49195311E-001
Al  6.25936975E-001  2.48587056E-003  8.75260839E-001
Al  4.99981882E-001  1.25196601E-001  8.74376940E-001
Al  5.01837949E-001  2.51581649E-001  -1.84975959E-003
Al  6.24901417E-001  3.75197850E-001  -1.90961486E-003
Al  6.23640667E-001  2.51230981E-001  1.22898862E-001
Al  4.97669737E-001  3.75412144E-001  1.25018118E-001
Al  4.99172828E-001  2.49135449E-001  2.47537953E-001
Al  6.26114674E-001  3.75105655E-001  2.47505761E-001
Al  6.27137648E-001  2.50314002E-001  3.75425038E-001
Al  5.00009062E-001  3.75209592E-001  3.77118921E-001
Al  4.99033035E-001  2.49934267E-001  4.98229002E-001
Al  6.24713824E-001  3.73102408E-001  5.02489528E-001
Al  6.22657575E-001  2.50196626E-001  6.24941490E-001
Al  5.01673994E-001  3.72502304E-001  6.26105717E-001
Al  4.99037060E-001  2.48384254E-001  7.48192949E-001
Al  6.24546667E-001  3.74534344E-001  7.47503672E-001
Al  6.24352250E-001  2.50025398E-001  8.76411631E-001
Al  5.01411188E-001  3.74969459E-001  8.76164297E-001
Al  5.02110496E-001  4.99085867E-001  -7.79686621E-005
Al  6.24980302E-001  6.24991374E-001  -4.65584281E-005
Al  6.25622431E-001  4.99991385E-001  1.23174279E-001
Al  5.01746163E-001  6.24865378E-001  1.24886703E-001
Al  4.97504107E-001  5.00064633E-001  2.51066894E-001
Al  6.25008575E-001  6.24913569E-001  2.50018211E-001
Al  6.25109904E-001  5.00026072E-001  3.75831494E-001
Al  5.02420415E-001  6.25052844E-001  3.74762243E-001
Al  4.99941325E-001  5.02465392E-001  4.98976256E-001
Al  6.24895440E-001  6.22555545E-001  5.02442317E-001
Al  6.27399042E-001  5.00017396E-001  6.25238402E-001
Al  4.97521569E-001  6.25968811E-001  6.23996015E-001
Al  4.99805490E-001  4.98450152E-001  7.48998812E-001
Al  6.25367892E-001  6.26771967E-001  7.52459447E-001
Al  6.25090906E-001  4.97503810E-001  8.73124119E-001
Al  4.98884905E-001  6.24532037E-001  8.75018713E-001
Al  5.00018707E-001  7.49980473E-001  1.14839890E-003
Al  6.27392428E-001  8.77236722E-001  -1.94758122E-005
Al  6.25019905E-001  7.50044148E-001  1.25892784E-001
Al  4.99978724E-001  8.75049278E-001  1.24980004E-001
Al  4.98623341E-001  7.52499904E-001  2.48126573E-001
Al  6.22992865E-001  8.74981873E-001  2.50019574E-001
Al  6.22503474E-001  7.50312858E-001  3.74738554E-001
Al  4.99971308E-001  8.76951938E-001  3.76437505E-001
Al  4.97834202E-001  7.50369537E-001  4.99990567E-001
Al  6.25018112E-001  8.74517773E-001  4.99448178E-001
Al  6.25214107E-001  7.52256285E-001  6.25211028E-001
Al  4.99944680E-001  8.74929680E-001  6.22882410E-001
Al  4.99991573E-001  7.50041369E-001  7.50018828E-001
Al  6.22891495E-001  8.75180674E-001  7.50024976E-001
Al  6.24871189E-001  7.49422515E-001  8.74037243E-001
Al  5.01755610E-001  8.74357368E-001  8.76732582E-001
Al  7.48379751E-001  2.49803686E-003  1.08115432E-003
Al  8.75688207E-001  1.23652053E-001  -8.89918223E-005
Al  8.75254726E-001  2.44275720E-003  1.25166632E-001
Al  7.50934109E-001  1.25009560E-001  1.26258491E-001
Al  7.50442037E-001  1.91407881E-004  2.50209255E-001
Al  8.75399223E-001  1.27347957E-001  2.49957231E-001
Al  8.77470444E-001  2.49445887E-003  3.75035345E-001
Al  7.50686378E-001  1.27361803E-001  3.75811724E-001
Al  7.50199006E-001  3.52301453E-005  4.99472303E-001
Al  8.75397121E-001  1.24562039E-001  5.00753184E-001
Al  8.74974751E-001  1.81780735E-005  6.25342394E-001
Al  7.50479454E-001  1.26645879E-001  6.24981598E-001
Al  7.50619528E-001  -1.06917091E-003  7.47824095E-001
Al  8.74609339E-001  1.24991023E-001  7.49173404E-001
Al  8.76361149E-001  -1.81550388E-005  8.72964848E-001
Al  7.48140728E-001  1.25313619E-001  8.72575597E-001
Al  7.50110373E-001  2.51963408E-001  9.84855982E-004
Al  8.77429594E-001  3.77196969E-001  2.48126605E-003
Al  8.77223326E-001  2.48691561E-001  1.24063725E-001
Al  7.49980233E-001  3.74875670E-001  1.25867474E-001
Al  7.51455194E-001  2.49778586E-001  2.50950280E-001
Al  8.75008866E-001  3.75357726E-001  2.52453374E-001
Al  8.75026853E-001  2.51795342E-001  3.75019561E-001
Al  7.50044982E-001  3.76340804E-001  3.75211845E-001
Al  7.49443081E-001  2.49957623E-001  4.99872504E-001
Al  8.73958388E-001  3.75008574E-001  4.99661962E-001
Al  8.77256648E-001  2.48431583E-001  6.26813143E-001
Al  7.50072785E-001  3.73163539E-001  6.23982472E-001
Al  7.50031667E-001  2.49642372E-001  7.50177450E-001
Al  8.73961698E-001  3.74576217E-001  7.50379255E-001
Al  8.74952305E-001  2.47500168E-001  8.74954458E-001
Al  7.49466243E-001  3.74680113E-001  8.74558516E-001
Al  7.51491989E-001  4.99809344E-001  1.66569216E-003
Al  8.74991370E-001  6.25110813E-001  1.37594637E-003
Al  8.73566418E-001  5.00008600E-001  1.24601102E-001
Al  7.52468730E-001  6.24958803E-001  1.26856772E-001
Al  7.50252800E-001  4.99176047E-001  2.50020250E-001
Al  8.75771668E-001  6.24991349E-001  2.50581834E-001
Al  8.73577716E-001  4.98230116E-001  3.74339106E-001
Al  7.47517333E-001  6.25475478E-001  3.75044559E-001
Al  7.49974879E-001  5.01735964E-001  5.02212373E-001
Al  8.74991571E-001  6.24943290E-001  5.00020143E-001
Al  8.74843574E-001  5.01184692E-001  6.25008581E-001
Al  7.50018487E-001  6.23444586E-001  6.25116312E-001
Al  7.49557153E-001  5.00008370E-001  7.50018397E-001
Al  8.73515361E-001  6.24916075E-001  7.49631459E-001
Al  8.73742885E-001  5.00119856E-001  8.74546570E-001
Al  7.49991628E-001  6.24835073E-001  8.73636262E-001
Al  7.50036089E-001  7.49850330E-001  -1.17132089E-004
Al  8.75303226E-001  8.74315259E-001  8.75781669E-005
Al  8.74929860E-001  7.50034812E-001  1.26900454E-001
Al  7.48145683E-001  8.77374313E-001  1.27489046E-001
Al  7.49943930E-001  7.50008374E-001  2.52056895E-001
Al  8.75018340E-001  8.75299423E-001  2.49954340E-001
Al  8.72845260E-001  7.51075464E-001  3.73375130E-001
Al  7.49183855E-001  8.74806018E-001  3.73048643E-001
Al  7.50262216E-001  7.48120483E-001  4.97787380E-001
Al  8.74467689E-001  8.74934772E-001  5.00018700E-001
Al  8.77300536E-001  7.50350492E-001  6.24894394E-001
Al  7.49934754E-001  8.72776739E-001  6.23468331E-001
Al  7.50051357E-001  7.52468159E-001  7.50037940E-001
Al  8.72508024E-001  8.73443801E-001  7.49903006E-001
Al  8.75459432E-001  7.50066846E-001  8.74980632E-001
Al  7.50053737E-001  8.75009199E-001  8.72582644E-001
K_POINTS automatic
2 2 2 1 1 1
