&CONTROL
restart_mode = 'from_scratch',
calculation = 'scf',
outdir = '/gpfs/bb/bxp912/scratch',
pseudo_dir = '/gpfs/bb/bxp912/pseudopotentials',
prefix = '2.48000000E-001',
etot_conv_thr = 1.00000000E-007,
forc_conv_thr = 1.00000000E-007,
nstep = 200,
tprnfor = .true.,
tstress = .true.,
disk_io = 'low',
/
&SYSTEM
ibrav = 14,
celldm(1) = 3.05001797E+001,
celldm(2) = 1.00000000E+000,
celldm(3) = 1.00000000E+000,
celldm(4) = 0.00000000E+000,
celldm(5) = 0.00000000E+000,
celldm(6) = 0.00000000E+000,
nat = 256,
ntyp = 1,
ecutwfc = 35,
ecutrho = 208,
occupations = 'smearing',
smearing = 'mv',
degauss = 5.00000007E-002,
/
&ELECTRONS
diagonalization = 'david',
mixing_mode = plain,
mixing_beta = 6.99999988E-001,
conv_thr = 1.00000000E-007,
/
&IONS
ion_dynamics = 'bfgs',
/
&CELL
cell_dynamics = 'bfgs',
press = 0.00000000E+000,
cell_factor = 2.00000000E+000,
/
ATOMIC_SPECIES
Al  2.69815390E+001  Al.pbe-n-kjpaw_psl.0.1.UPF
ATOMIC_POSITIONS crystal
Al  -1.60989397E-004  -5.24406462E-004  -6.54519465E-004
Al  1.24971437E-001  1.24882406E-001  -2.44323373E-003
Al  1.25057091E-001  -8.41451249E-006  1.24991231E-001
Al  3.16843410E-004  1.25521337E-001  1.26091474E-001
Al  -2.17583881E-003  -8.45862265E-005  2.51938397E-001
Al  1.27436575E-001  1.24235974E-001  2.52471256E-001
Al  1.26182927E-001  -2.48349328E-003  3.74981887E-001
Al  -1.35052647E-003  1.22767223E-001  3.72767593E-001
Al  1.60938827E-004  1.84608605E-005  4.97675366E-001
Al  1.25433006E-001  1.24981308E-001  4.98413043E-001
Al  1.27217556E-001  -2.39263245E-003  6.25466117E-001
Al  1.88280813E-005  1.27131478E-001  6.24802439E-001
Al  5.55780148E-004  -4.32130193E-005  7.49617895E-001
Al  1.22500088E-001  1.23034891E-001  7.48296957E-001
Al  1.24939420E-001  2.32719960E-003  8.74990724E-001
Al  -6.56515267E-004  1.24943017E-001  8.74788868E-001
Al  -8.65818721E-006  2.52084499E-001  8.77571726E-004
Al  1.22608764E-001  3.74287646E-001  -1.28270196E-003
Al  1.24128213E-001  2.49295886E-001  1.27499959E-001
Al  2.37189348E-003  3.73329189E-001  1.22588253E-001
Al  9.67880553E-004  2.50120526E-001  2.49811600E-001
Al  1.26150145E-001  3.74805590E-001  2.50038597E-001
Al  1.24634916E-001  2.51633699E-001  3.74311491E-001
Al  2.92241060E-005  3.75821553E-001  3.73584215E-001
Al  1.99820669E-005  2.50227758E-001  5.00008873E-001
Al  1.24982875E-001  3.74875604E-001  4.99687816E-001
Al  1.25070273E-001  2.47627173E-001  6.24945423E-001
Al  2.49858973E-003  3.73462799E-001  6.24317420E-001
Al  3.81649916E-005  2.51990247E-001  7.49250393E-001
Al  1.23878918E-001  3.77470031E-001  7.49281960E-001
Al  1.23872156E-001  2.52445647E-001  8.75835873E-001
Al  -6.69340378E-004  3.74906861E-001  8.74283307E-001
Al  -2.27217796E-003  4.98696633E-001  -1.10108220E-003
Al  1.25047584E-001  6.24909509E-001  -2.34222622E-003
Al  1.25226483E-001  4.99324357E-001  1.24778901E-001
Al  1.69298573E-004  6.26051810E-001  1.24977071E-001
Al  5.37090420E-004  4.99779603E-001  2.52496467E-001
Al  1.24914799E-001  6.24145393E-001  2.50075340E-001
Al  1.24644016E-001  5.02397881E-001  3.72527260E-001
Al  -6.82651457E-004  6.25022804E-001  3.75018581E-001
Al  -1.81789175E-003  5.00018731E-001  5.00668508E-001
Al  1.27373837E-001  6.25116829E-001  5.00380622E-001
Al  1.26002176E-001  5.00055833E-001  6.25266865E-001
Al  1.67006505E-003  6.25115426E-001  6.24906054E-001
Al  3.25892899E-005  5.00724839E-001  7.49963821E-001
Al  1.22852468E-001  6.24753132E-001  7.49957637E-001
Al  1.23865890E-001  4.97512448E-001  8.75046234E-001
Al  -1.51372632E-003  6.25055107E-001  8.76646495E-001
Al  6.38963379E-005  7.49937106E-001  -1.02227414E-004
Al  1.24145240E-001  8.77414989E-001  -9.65524220E-004
Al  1.25239985E-001  7.49949528E-001  1.24718060E-001
Al  6.38904537E-004  8.72937712E-001  1.24981029E-001
Al  1.09393217E-004  7.50704654E-001  2.52118323E-001
Al  1.27473567E-001  8.74940889E-001  2.48781894E-001
Al  1.24566057E-001  7.52304268E-001  3.76593077E-001
Al  1.83079210E-003  8.75026257E-001  3.75120562E-001
Al  1.53736883E-003  7.50041307E-001  5.00018108E-001
Al  1.25075012E-001  8.76143097E-001  5.01206287E-001
Al  1.24981203E-001  7.50104390E-001  6.27072374E-001
Al  -1.40325575E-004  8.76338249E-001  6.22643597E-001
Al  -8.38469956E-006  7.49531356E-001  7.52357154E-001
Al  1.25282294E-001  8.72506858E-001  7.49845424E-001
Al  1.27418016E-001  7.49981216E-001  8.73290187E-001
Al  -1.53208691E-003  8.77408452E-001  8.74754647E-001
Al  2.52139445E-001  -2.80987288E-004  -5.82198236E-005
Al  3.75009547E-001  1.25066374E-001  -2.37855010E-003
Al  3.77005926E-001  -3.79526532E-004  1.23463890E-001
Al  2.49909240E-001  1.27499541E-001  1.22518063E-001
Al  2.49991290E-001  -8.44607612E-005  2.50775952E-001
Al  3.73701853E-001  1.22513635E-001  2.47509701E-001
Al  3.76773088E-001  -2.23429331E-003  3.77210144E-001
Al  2.50008903E-001  1.24684962E-001  3.75582986E-001
Al  2.49889000E-001  1.22543563E-003  5.02309303E-001
Al  3.75990459E-001  1.26428532E-001  5.00094869E-001
Al  3.74727981E-001  -1.73073711E-003  6.25179479E-001
Al  2.49953192E-001  1.27372634E-001  6.24869569E-001
Al  2.47553300E-001  2.98415862E-004  7.51933361E-001
Al  3.77235382E-001  1.25483601E-001  7.50025587E-001
Al  3.74456727E-001  -2.10061102E-003  8.77115211E-001
Al  2.49649332E-001  1.24436098E-001  8.75079525E-001
Al  2.49964857E-001  2.50315969E-001  -1.76642766E-003
Al  3.76767267E-001  3.73369102E-001  -8.77220544E-004
Al  3.76564221E-001  2.49582554E-001  1.26970741E-001
Al  2.52348640E-001  3.76442993E-001  1.24736069E-001
Al  2.47834274E-001  2.51968277E-001  2.48314703E-001
Al  3.77433708E-001  3.73318355E-001  2.49616724E-001
Al  3.74865355E-001  2.52490294E-001  3.74055322E-001
Al  2.49980905E-001  3.77140190E-001  3.74539853E-001
Al  2.49430325E-001  2.49972955E-001  4.99971143E-001
Al  3.77204938E-001  3.76977176E-001  4.98889117E-001
Al  3.75064895E-001  2.49595792E-001  6.22991710E-001
Al  2.47961401E-001  3.75472411E-001  6.22624413E-001
Al  2.50008766E-001  2.47852054E-001  7.50099506E-001
Al  3.73338142E-001  3.75054274E-001  7.49685209E-001
Al  3.74981830E-001  2.50194106E-001  8.75027003E-001
Al  2.50714255E-001  3.73179328E-001  8.77095857E-001
Al  2.47957744E-001  5.01692221E-001  -6.28027890E-004
Al  3.74711113E-001  6.23993150E-001  2.49734597E-003
Al  3.77316163E-001  4.99991185E-001  1.25008373E-001
Al  2.49545219E-001  6.24133303E-001  1.26220113E-001
Al  2.49991566E-001  4.99978347E-001  2.49085907E-001
Al  3.72902517E-001  6.25092412E-001  2.51078980E-001
Al  3.74707285E-001  4.99964823E-001  3.74991620E-001
Al  2.50387226E-001  6.24116843E-001  3.77399739E-001
Al  2.52499994E-001  5.01677282E-001  4.99517528E-001
Al  3.74909568E-001  6.25050630E-001  5.02448769E-001
Al  3.72597807E-001  4.98122666E-001  6.27442294E-001
Al  2.50910737E-001  6.26755369E-001  6.25277930E-001
Al  2.47629395E-001  5.02345277E-001  7.47518237E-001
Al  3.73562119E-001  6.27374839E-001  7.50270146E-001
Al  3.75021859E-001  5.00051198E-001  8.76682292E-001
Al  2.49682237E-001  6.24991445E-001  8.74883879E-001
Al  2.49345400E-001  7.50231987E-001  -3.08134289E-005
Al  3.75008722E-001  8.74981854E-001  -1.74136236E-003
Al  3.72571451E-001  7.48150881E-001  1.26678826E-001
Al  2.50229765E-001  8.74926821E-001  1.26755101E-001
Al  2.51803016E-001  7.48280785E-001  2.52330056E-001
Al  3.76871798E-001  8.74982814E-001  2.47723199E-001
Al  3.75008459E-001  7.52265266E-001  3.77438999E-001
Al  2.51018039E-001  8.74991318E-001  3.74323761E-001
Al  2.50649121E-001  7.49784491E-001  4.99981697E-001
Al  3.75059154E-001  8.74864097E-001  4.99492526E-001
Al  3.74654524E-001  7.51212065E-001  6.24898221E-001
Al  2.48889640E-001  8.76809232E-001  6.24957244E-001
Al  2.52240166E-001  7.50132814E-001  7.49991450E-001
Al  3.74879834E-001  8.74923181E-001  7.50020575E-001
Al  3.74808874E-001  7.49916384E-001  8.77425717E-001
Al  2.49784461E-001  8.72626057E-001  8.72818701E-001
Al  4.98737479E-001  -2.28811066E-003  1.95933803E-003
Al  6.24158287E-001  1.25681012E-001  8.37825424E-006
Al  6.26956049E-001  -2.79597914E-004  1.22782315E-001
Al  5.01018886E-001  1.25109809E-001  1.24918628E-001
Al  4.98767429E-001  1.83269668E-003  2.47973546E-001
Al  6.25087663E-001  1.25645243E-001  2.51607182E-001
Al  6.22511543E-001  2.45819859E-003  3.74333196E-001
Al  5.02356464E-001  1.27427859E-001  3.74216604E-001
Al  4.98051364E-001  -1.88209014E-005  4.99225080E-001
Al  6.22500088E-001  1.25009697E-001  4.98656995E-001
Al  6.26136796E-001  2.22389899E-003  6.22747591E-001
Al  5.00008541E-001  1.22921938E-001  6.24911827E-001
Al  4.97500844E-001  2.18622977E-004  7.47993873E-001
Al  6.26792499E-001  1.24907834E-001  7.52057084E-001
Al  6.25031140E-001  8.28693804E-004  8.75436364E-001
Al  4.98057670E-001  1.24980269E-001  8.76035230E-001
Al  4.99672738E-001  2.51370788E-001  -8.43000905E-006
Al  6.25356033E-001  3.75534632E-001  2.69389229E-005
Al  6.24990715E-001  2.49819625E-001  1.27316827E-001
Al  5.02008405E-001  3.76745415E-001  1.24979764E-001
Al  4.97544022E-001  2.50008383E-001  2.51401001E-001
Al  6.26061816E-001  3.75850552E-001  2.51340821E-001
Al  6.24981887E-001  2.52446530E-001  3.74830809E-001
Al  4.99104461E-001  3.76833728E-001  3.74092824E-001
Al  5.01924646E-001  2.49621804E-001  4.98337855E-001
Al  6.24176402E-001  3.75457822E-001  5.01077615E-001
Al  6.24923537E-001  2.50735438E-001  6.25115454E-001
Al  4.97500127E-001  3.72500717E-001  6.24691762E-001
Al  4.98307254E-001  2.51260834E-001  7.50018210E-001
Al  6.25747499E-001  3.74845012E-001  7.52304931E-001
Al  6.25055088E-001  2.50008463E-001  8.75037008E-001
Al  5.01164248E-001  3.75037325E-001  8.72512875E-001
Al  5.02497652E-001  4.98824288E-001  2.28794513E-003
Al  6.25766325E-001  6.23089431E-001  -3.35322376E-005
Al  6.25018810E-001  4.98782132E-001  1.26696379E-001
Al  5.00861837E-001  6.26353708E-001  1.24990743E-001
Al  5.00257216E-001  4.97829084E-001  2.47551722E-001
Al  6.25087003E-001  6.24982800E-001  2.51677019E-001
Al  6.27499644E-001  4.98137386E-001  3.74928413E-001
Al  5.00133115E-001  6.27307040E-001  3.77404960E-001
Al  5.00028520E-001  5.01812861E-001  5.00017109E-001
Al  6.25018328E-001  6.23280930E-001  4.97693282E-001
Al  6.24991467E-001  4.97524017E-001  6.25008827E-001
Al  5.01653474E-001  6.27495420E-001  6.25040196E-001
Al  5.00478792E-001  5.00576065E-001  7.48530703E-001
Al  6.23705081E-001  6.25008699E-001  7.47729422E-001
Al  6.26503099E-001  4.99816749E-001  8.72872556E-001
Al  5.02439133E-001  6.27225557E-001  8.74234388E-001
Al  5.00018146E-001  7.49991603E-001  2.87148652E-005
Al  6.25044680E-001  8.75835957E-001  8.13047174E-004
Al  6.25199991E-001  7.50019183E-001  1.24647644E-001
Al  4.97537175E-001  8.75039617E-001  1.24965985E-001
Al  5.02487198E-001  7.50039809E-001  2.49177327E-001
Al  6.27491674E-001  8.75027436E-001  2.48207971E-001
Al  6.25430084E-001  7.50443850E-001  3.76909055E-001
Al  4.97616806E-001  8.75934020E-001  3.73619495E-001
Al  5.00157370E-001  7.50030209E-001  5.00064117E-001
Al  6.22592197E-001  8.75107135E-001  5.00027002E-001
Al  6.22627260E-001  7.51974503E-001  6.26094908E-001
Al  5.00254265E-001  8.76750664E-001  6.25160476E-001
Al  5.00018114E-001  7.52451007E-001  7.50542438E-001
Al  6.23078176E-001  8.75174488E-001  7.52353250E-001
Al  6.24363188E-001  7.49720087E-001  8.75150060E-001
Al  5.01276127E-001  8.77347843E-001  8.73350325E-001
Al  7.51868274E-001  -2.33858149E-003  -2.48540295E-003
Al  8.73538278E-001  1.26522693E-001  2.17248696E-003
Al  8.74023525E-001  8.45658684E-006  1.24981390E-001
Al  7.50103042E-001  1.23696686E-001  1.25214205E-001
Al  7.49866282E-001  1.91445135E-003  2.48962057E-001
Al  8.75018480E-001  1.25294678E-001  2.49906163E-001
Al  8.75065486E-001  1.17593684E-003  3.74571350E-001
Al  7.50093553E-001  1.25126653E-001  3.75283217E-001
Al  7.49027277E-001  -1.38101211E-004  4.97701185E-001
Al  8.77387808E-001  1.25133973E-001  5.00132129E-001
Al  8.72508239E-001  2.25453101E-003  6.27374620E-001
Al  7.50023517E-001  1.27330563E-001  6.25355216E-001
Al  7.49889767E-001  1.68709876E-004  7.52131623E-001
Al  8.74903895E-001  1.24611230E-001  7.48931837E-001
Al  8.75391316E-001  -1.06183254E-004  8.74981321E-001
Al  7.52368653E-001  1.26576865E-001  8.75486931E-001
Al  7.50313964E-001  2.47544486E-001  7.25033004E-004
Al  8.75038018E-001  3.75009492E-001  -1.14405995E-003
Al  8.76060506E-001  2.50431879E-001  1.27019462E-001
Al  7.47785666E-001  3.77477052E-001  1.23888822E-001
Al  7.47604865E-001  2.50891407E-001  2.48159723E-001
Al  8.76179613E-001  3.72646910E-001  2.49968881E-001
Al  8.75491364E-001  2.47500624E-001  3.75009840E-001
Al  7.50055747E-001  3.74723570E-001  3.72573397E-001
Al  7.52266055E-001  2.49991627E-001  4.98719300E-001
Al  8.75626784E-001  3.76698004E-001  4.97962603E-001
Al  8.75635406E-001  2.50220032E-001  6.24569533E-001
Al  7.52184322E-001  3.74981067E-001  6.25188754E-001
Al  7.52275862E-001  2.50127314E-001  7.50009117E-001
Al  8.75084300E-001  3.74759656E-001  7.49453658E-001
Al  8.73293223E-001  2.47536214E-001  8.75018337E-001
Al  7.50105429E-001  3.74981398E-001  8.76767350E-001
Al  7.49530884E-001  5.00388052E-001  -9.49857315E-006
Al  8.75790460E-001  6.26520097E-001  1.61438794E-003
Al  8.73511925E-001  5.00701438E-001  1.24838021E-001
Al  7.49223585E-001  6.24982957E-001  1.25203728E-001
Al  7.51917897E-001  4.99705170E-001  2.50277217E-001
Al  8.74942130E-001  6.24609860E-001  2.49991112E-001
Al  8.74979989E-001  4.98125926E-001  3.74762667E-001
Al  7.49979662E-001  6.25008377E-001  3.76666871E-001
Al  7.47514238E-001  4.99981821E-001  4.99969626E-001
Al  8.75009088E-001  6.25736168E-001  5.00150098E-001
Al  8.73592716E-001  4.98686280E-001  6.27434988E-001
Al  7.48085340E-001  6.25357990E-001  6.22534038E-001
Al  7.48743034E-001  4.99468466E-001  7.49816945E-001
Al  8.76850056E-001  6.24940512E-001  7.49365685E-001
Al  8.74972388E-001  4.99829599E-001  8.76500710E-001
Al  7.49596153E-001  6.24123815E-001  8.74700379E-001
Al  7.52022434E-001  7.52425203E-001  1.74852004E-003
Al  8.75099158E-001  8.74648690E-001  -1.05155085E-004
Al  8.72977258E-001  7.52111578E-001  1.23565197E-001
Al  7.50081933E-001  8.75839301E-001  1.25907782E-001
Al  7.48479027E-001  7.49036927E-001  2.50089723E-001
Al  8.72927847E-001  8.76608266E-001  2.52456305E-001
Al  8.73163217E-001  7.48132395E-001  3.74726479E-001
Al  7.50260369E-001  8.73884890E-001  3.75883273E-001
Al  7.48323458E-001  7.50090593E-001  5.02289589E-001
Al  8.75020113E-001  8.76842552E-001  5.00222570E-001
Al  8.76992876E-001  7.47528983E-001  6.27207589E-001
Al  7.49221000E-001  8.75050455E-001  6.25018283E-001
Al  7.47557478E-001  7.49319435E-001  7.51218790E-001
Al  8.75019359E-001  8.76133039E-001  7.49575685E-001
Al  8.74777642E-001  7.50541471E-001  8.77499532E-001
Al  7.48069120E-001  8.76497722E-001  8.72607928E-001
K_POINTS automatic
2 2 2 1 1 1
