&CONTROL
restart_mode = 'from_scratch',
calculation = 'scf',
outdir = '/gpfs/bb/bxp912/scratch',
pseudo_dir = '/gpfs/bb/bxp912/pseudopotentials',
prefix = '2.48000000E-001',
etot_conv_thr = 1.00000000E-007,
forc_conv_thr = 1.00000000E-007,
nstep = 200,
tprnfor = .true.,
tstress = .true.,
disk_io = 'low',
/
&SYSTEM
ibrav = 14,
celldm(1) = 3.05001797E+001,
celldm(2) = 1.00000000E+000,
celldm(3) = 1.00000000E+000,
celldm(4) = 0.00000000E+000,
celldm(5) = 0.00000000E+000,
celldm(6) = 0.00000000E+000,
nat = 256,
ntyp = 1,
ecutwfc = 35,
ecutrho = 208,
occupations = 'smearing',
smearing = 'mv',
degauss = 5.00000007E-002,
/
&ELECTRONS
diagonalization = 'david',
mixing_mode = plain,
mixing_beta = 6.99999988E-001,
conv_thr = 1.00000000E-007,
/
&IONS
ion_dynamics = 'bfgs',
/
&CELL
cell_dynamics = 'bfgs',
press = 0.00000000E+000,
cell_factor = 2.00000000E+000,
/
ATOMIC_SPECIES
Al  2.69815390E+001  Al.pbe-n-kjpaw_psl.0.1.UPF
ATOMIC_POSITIONS crystal
Al  -1.28348897E-004  2.13789891E-004  -5.23818502E-004
Al  1.26578509E-001  1.24854137E-001  2.04130315E-003
Al  1.27309278E-001  8.52086100E-004  1.22502116E-001
Al  -5.78254049E-004  1.24975375E-001  1.25133139E-001
Al  -6.58308744E-004  5.67142817E-004  2.49567965E-001
Al  1.25018108E-001  1.22504703E-001  2.49991608E-001
Al  1.26815356E-001  -2.08965110E-003  3.77283023E-001
Al  1.93218632E-003  1.23047212E-001  3.74980825E-001
Al  8.31180832E-004  1.82612875E-003  4.99946478E-001
Al  1.27489888E-001  1.24829608E-001  4.99460820E-001
Al  1.26433351E-001  -9.91778954E-004  6.27260438E-001
Al  -1.20821315E-003  1.23439138E-001  6.23142427E-001
Al  9.75980121E-006  5.87894349E-004  7.50636419E-001
Al  1.23196353E-001  1.27476762E-001  7.50106587E-001
Al  1.24821950E-001  8.37013521E-006  8.75029372E-001
Al  2.44867633E-003  1.24991426E-001  8.72981182E-001
Al  -6.89471763E-004  2.48357598E-001  -1.06902592E-003
Al  1.26696013E-001  3.75033810E-001  -1.86692173E-003
Al  1.24423670E-001  2.48286977E-001  1.26282866E-001
Al  -2.08721286E-003  3.76617822E-001  1.25128496E-001
Al  1.43331837E-003  2.49952850E-001  2.49963083E-001
Al  1.23839506E-001  3.75034512E-001  2.49823541E-001
Al  1.22559380E-001  2.50399128E-001  3.75730927E-001
Al  1.37454816E-004  3.72970778E-001  3.75008804E-001
Al  1.70902166E-003  2.51308335E-001  4.97705710E-001
Al  1.25579562E-001  3.75280637E-001  4.98351656E-001
Al  1.25019473E-001  2.50080816E-001  6.25298877E-001
Al  -7.22381907E-004  3.74602135E-001  6.24991075E-001
Al  1.93542506E-004  2.51315720E-001  7.49935102E-001
Al  1.27216816E-001  3.74362501E-001  7.50028997E-001
Al  1.25707062E-001  2.49100241E-001  8.75359343E-001
Al  1.41715570E-003  3.75220888E-001  8.73688941E-001
Al  -1.23100159E-003  4.97553214E-001  1.51526972E-003
Al  1.26004429E-001  6.27412685E-001  -2.16489426E-003
Al  1.25295858E-001  5.00008671E-001  1.25260031E-001
Al  -2.36681409E-003  6.25721995E-001  1.26105874E-001
Al  9.46689146E-004  5.01500599E-001  2.49942381E-001
Al  1.22630643E-001  6.24974634E-001  2.47505091E-001
Al  1.25853351E-001  4.98190445E-001  3.76585667E-001
Al  -3.95256426E-004  6.24950816E-001  3.75257253E-001
Al  1.83577378E-003  4.99280184E-001  5.02312823E-001
Al  1.26914512E-001  6.26114886E-001  4.98322128E-001
Al  1.24971106E-001  5.01375315E-001  6.25506831E-001
Al  7.13868064E-005  6.24991548E-001  6.24978345E-001
Al  1.06786223E-003  4.99202532E-001  7.50216072E-001
Al  1.23912475E-001  6.25248322E-001  7.52371484E-001
Al  1.23896097E-001  5.00043264E-001  8.77273792E-001
Al  2.49066418E-003  6.23380102E-001  8.73426706E-001
Al  6.83322240E-004  7.50431088E-001  -2.09347321E-003
Al  1.25666318E-001  8.75938883E-001  9.32916190E-004
Al  1.24841926E-001  7.49943092E-001  1.25051065E-001
Al  2.05062403E-003  8.72586564E-001  1.24528044E-001
Al  -1.17259822E-003  7.52459928E-001  2.52433707E-001
Al  1.23022169E-001  8.77042451E-001  2.50894945E-001
Al  1.24912163E-001  7.49981140E-001  3.74783889E-001
Al  -2.61317693E-004  8.75033808E-001  3.72898307E-001
Al  -1.50058914E-003  7.50648440E-001  5.01041042E-001
Al  1.27019263E-001  8.74879490E-001  4.99981850E-001
Al  1.24011843E-001  7.49976091E-001  6.23360016E-001
Al  -4.82929860E-005  8.75224060E-001  6.22760167E-001
Al  1.87341296E-003  7.49981464E-001  7.49960768E-001
Al  1.25562505E-001  8.75008888E-001  7.52498692E-001
Al  1.27381899E-001  7.50605057E-001  8.75256419E-001
Al  -2.49101550E-003  8.74543300E-001  8.74991241E-001
Al  2.51442016E-001  1.81357414E-005  1.86135417E-005
Al  3.73424511E-001  1.25388956E-001  -4.68384877E-005
Al  3.75280003E-001  2.49893064E-003  1.24170039E-001
Al  2.47689678E-001  1.23341664E-001  1.27397732E-001
Al  2.51070429E-001  7.12822772E-004  2.49247572E-001
Al  3.75017321E-001  1.27291185E-001  2.50009134E-001
Al  3.76436710E-001  -7.79639025E-004  3.73478197E-001
Al  2.48709877E-001  1.25018816E-001  3.75023690E-001
Al  2.49130915E-001  -8.79618375E-004  5.02021305E-001
Al  3.75868489E-001  1.22674985E-001  5.02356432E-001
Al  3.73086404E-001  -2.41419760E-003  6.23973788E-001
Al  2.47701967E-001  1.24982451E-001  6.24695606E-001
Al  2.50098298E-001  7.82726375E-004  7.50670346E-001
Al  3.73920629E-001  1.27264423E-001  7.50456611E-001
Al  3.74913608E-001  -4.88084465E-005  8.75018839E-001
Al  2.49708738E-001  1.25018804E-001  8.75020271E-001
Al  2.48606747E-001  2.50118693E-001  2.06144417E-003
Al  3.76588909E-001  3.72703521E-001  -2.66268809E-004
Al  3.74602144E-001  2.49757781E-001  1.24951345E-001
Al  2.49717537E-001  3.77371891E-001  1.24843332E-001
Al  2.52460777E-001  2.49940433E-001  2.50217934E-001
Al  3.75512033E-001  3.74531807E-001  2.52034391E-001
Al  3.75923270E-001  2.51759522E-001  3.75017851E-001
Al  2.50898154E-001  3.75009009E-001  3.75294096E-001
Al  2.50046549E-001  2.49374760E-001  4.98380786E-001
Al  3.72718170E-001  3.75086040E-001  5.00030949E-001
Al  3.74703622E-001  2.50018444E-001  6.22716201E-001
Al  2.50385189E-001  3.76859636E-001  6.26998558E-001
Al  2.49871229E-001  2.49938732E-001  7.49341162E-001
Al  3.72505334E-001  3.74919545E-001  7.50028514E-001
Al  3.74932643E-001  2.50158992E-001  8.72514848E-001
Al  2.50866186E-001  3.75487379E-001  8.74849862E-001
Al  2.51517933E-001  5.00130656E-001  -2.12430596E-003
Al  3.74845047E-001  6.27476284E-001  -8.92961824E-004
Al  3.75071795E-001  5.00069686E-001  1.27489024E-001
Al  2.49864281E-001  6.22532945E-001  1.24930563E-001
Al  2.50145130E-001  5.02398274E-001  2.47889835E-001
Al  3.72511203E-001  6.24947234E-001  2.49922617E-001
Al  3.75028031E-001  5.00437409E-001  3.72875786E-001
Al  2.48812628E-001  6.24874044E-001  3.75093214E-001
Al  2.52413962E-001  4.99049242E-001  4.99981489E-001
Al  3.75053831E-001  6.24425803E-001  4.97554341E-001
Al  3.75331863E-001  4.98554936E-001  6.27466455E-001
Al  2.49857222E-001  6.23395565E-001  6.25017624E-001
Al  2.47771917E-001  5.00051917E-001  7.49982237E-001
Al  3.77370998E-001  6.22618677E-001  7.50485591E-001
Al  3.74964355E-001  5.02445909E-001  8.75267816E-001
Al  2.49792917E-001  6.25885975E-001  8.72521803E-001
Al  2.50992608E-001  7.49774223E-001  9.61294974E-006
Al  3.75047778E-001  8.75391017E-001  -2.45475380E-003
Al  3.75008429E-001  7.50208230E-001  1.24166274E-001
Al  2.50008881E-001  8.75850728E-001  1.26778562E-001
Al  2.47575948E-001  7.49245466E-001  2.50576608E-001
Al  3.75008370E-001  8.74733425E-001  2.48322149E-001
Al  3.77322899E-001  7.51003392E-001  3.75416513E-001
Al  2.50263994E-001  8.73679400E-001  3.75008371E-001
Al  2.49981893E-001  7.49740561E-001  5.00067586E-001
Al  3.72514038E-001  8.74990990E-001  5.00648649E-001
Al  3.74873294E-001  7.50008627E-001  6.24686789E-001
Al  2.51120748E-001  8.74909498E-001  6.27364342E-001
Al  2.49963355E-001  7.48133322E-001  7.47626916E-001
Al  3.74661181E-001  8.77374962E-001  7.49172791E-001
Al  3.75019389E-001  7.50117704E-001  8.76921335E-001
Al  2.49460460E-001  8.75485055E-001  8.74832568E-001
Al  4.98676321E-001  -4.49138634E-004  1.28794515E-003
Al  6.24699490E-001  1.25008526E-001  -5.50858488E-005
Al  6.24220997E-001  -8.84283815E-005  1.24702222E-001
Al  5.00664603E-001  1.24652113E-001  1.23823974E-001
Al  4.97526496E-001  1.74450656E-003  2.49913082E-001
Al  6.24823557E-001  1.24691153E-001  2.50170454E-001
Al  6.27467495E-001  -4.20791823E-004  3.75018864E-001
Al  5.00048596E-001  1.24965127E-001  3.75008509E-001
Al  4.97981562E-001  -2.50201190E-004  5.02144097E-001
Al  6.25316388E-001  1.24602563E-001  4.97511065E-001
Al  6.25140937E-001  6.04512731E-004  6.25019620E-001
Al  5.00598366E-001  1.24980739E-001  6.27486173E-001
Al  5.01792727E-001  -1.38977869E-003  7.48318250E-001
Al  6.25576555E-001  1.24972350E-001  7.50635583E-001
Al  6.25460351E-001  -2.92128906E-005  8.72625223E-001
Al  5.01804738E-001  1.27002952E-001  8.73892642E-001
Al  4.97538958E-001  2.48048959E-001  2.54391445E-005
Al  6.23738271E-001  3.72613069E-001  -1.91772677E-003
Al  6.26774704E-001  2.49991316E-001  1.24958476E-001
Al  5.00515163E-001  3.73067729E-001  1.25157295E-001
Al  5.01364157E-001  2.50740169E-001  2.50051269E-001
Al  6.23786165E-001  3.75707966E-001  2.49961932E-001
Al  6.25030420E-001  2.48439055E-001  3.74774280E-001
Al  4.97716245E-001  3.72500974E-001  3.77394640E-001
Al  4.99080499E-001  2.47568190E-001  4.99991182E-001
Al  6.24853593E-001  3.75079920E-001  5.00185887E-001
Al  6.25008441E-001  2.48194487E-001  6.25008371E-001
Al  5.00071625E-001  3.75089956E-001  6.26625987E-001
Al  5.00132874E-001  2.50144982E-001  7.50805092E-001
Al  6.24427373E-001  3.75018238E-001  7.51621361E-001
Al  6.25963397E-001  2.50071956E-001  8.74655184E-001
Al  5.00890593E-001  3.75701488E-001  8.75612699E-001
Al  4.98597518E-001  5.00008523E-001  -1.99429296E-004
Al  6.26574544E-001  6.27478306E-001  7.32506403E-004
Al  6.22601836E-001  4.97762703E-001  1.25163554E-001
Al  4.99651781E-001  6.24794454E-001  1.27408534E-001
Al  4.98533655E-001  5.01729009E-001  2.50553082E-001
Al  6.24104254E-001  6.24991032E-001  2.48670157E-001
Al  6.25951054E-001  5.02229685E-001  3.74601288E-001
Al  5.00702608E-001  6.23436743E-001  3.76522224E-001
Al  4.98569347E-001  5.01344381E-001  4.99239915E-001
Al  6.25708714E-001  6.22535674E-001  4.97708580E-001
Al  6.25109486E-001  5.00019996E-001  6.27492777E-001
Al  4.99938166E-001  6.25771350E-001  6.26798493E-001
Al  5.02493169E-001  4.98722131E-001  7.48933349E-001
Al  6.25259997E-001  6.22502450E-001  7.52124650E-001
Al  6.24177387E-001  5.01107745E-001  8.72574847E-001
Al  5.00308579E-001  6.24963210E-001  8.74468833E-001
Al  5.01355234E-001  7.49203466E-001  2.44938031E-005
Al  6.25024606E-001  8.77380987E-001  -2.00641114E-005
Al  6.22939270E-001  7.50018133E-001  1.24970283E-001
Al  4.99756531E-001  8.75385933E-001  1.25747711E-001
Al  5.02231595E-001  7.47536744E-001  2.50071111E-001
Al  6.22507927E-001  8.73615031E-001  2.47522461E-001
Al  6.24980921E-001  7.48240147E-001  3.76926245E-001
Al  5.00019081E-001  8.74197948E-001  3.75100037E-001
Al  5.00950528E-001  7.49041531E-001  4.99882795E-001
Al  6.25020208E-001  8.73964833E-001  5.01399805E-001
Al  6.24538128E-001  7.51774617E-001  6.25297050E-001
Al  5.00379241E-001  8.74974512E-001  6.22664285E-001
Al  4.99936466E-001  7.48452260E-001  7.49991610E-001
Al  6.27199486E-001  8.75253178E-001  7.49826690E-001
Al  6.26862189E-001  7.50166155E-001  8.76222566E-001
Al  4.99977722E-001  8.74813463E-001  8.73090192E-001
Al  7.49876682E-001  -2.04210596E-003  -3.93147459E-004
Al  8.76298663E-001  1.22827786E-001  1.37394288E-003
Al  8.74548373E-001  3.08747402E-004  1.25008425E-001
Al  7.48465590E-001  1.24288230E-001  1.25018275E-001
Al  7.49966029E-001  2.24456506E-003  2.49552300E-001
Al  8.72784229E-001  1.24828443E-001  2.50019102E-001
Al  8.75587428E-001  -1.01331904E-004  3.73802006E-001
Al  7.49734341E-001  1.25024012E-001  3.74978751E-001
Al  7.49115941E-001  2.48424017E-003  4.97661138E-001
Al  8.73852276E-001  1.23612623E-001  5.00008399E-001
Al  8.74651413E-001  -1.17412691E-003  6.24981648E-001
Al  7.50008427E-001  1.24860461E-001  6.27401544E-001
Al  7.50019742E-001  1.32175358E-003  7.52420680E-001
Al  8.74821771E-001  1.27450259E-001  7.50018535E-001
Al  8.77187826E-001  -2.17844172E-003  8.74663683E-001
Al  7.51549486E-001  1.25414815E-001  8.76657454E-001
Al  7.50194091E-001  2.50075681E-001  -3.71858998E-005
Al  8.75377519E-001  3.77048646E-001  1.92158953E-005
Al  8.74817448E-001  2.48780052E-001  1.22551506E-001
Al  7.47527132E-001  3.75018496E-001  1.25427073E-001
Al  7.52136191E-001  2.47502764E-001  2.50281582E-001
Al  8.76521290E-001  3.75135786E-001  2.47762926E-001
Al  8.72755062E-001  2.50049170E-001  3.74980054E-001
Al  7.49650950E-001  3.74981832E-001  3.72617975E-001
Al  7.50303742E-001  2.49957938E-001  4.98478861E-001
Al  8.74956599E-001  3.76364429E-001  4.99891603E-001
Al  8.77236229E-001  2.49990728E-001  6.26515471E-001
Al  7.50251920E-001  3.74498513E-001  6.27378341E-001
Al  7.52328883E-001  2.49979066E-001  7.51666323E-001
Al  8.74981770E-001  3.72500723E-001  7.50008659E-001
Al  8.73307849E-001  2.49925313E-001  8.73187487E-001
Al  7.49965097E-001  3.77035794E-001  8.74771352E-001
Al  7.50119722E-001  4.98246987E-001  -2.70366413E-004
Al  8.77057714E-001  6.24769989E-001  8.64349131E-006
Al  8.74227839E-001  4.99990861E-001  1.27377839E-001
Al  7.49951560E-001  6.24924868E-001  1.27497549E-001
Al  7.49285867E-001  4.98942608E-001  2.49991489E-001
Al  8.74768580E-001  6.24866642E-001  2.50204850E-001
Al  8.73262245E-001  4.99928327E-001  3.73875617E-001
Al  7.49953881E-001  6.27191437E-001  3.74865275E-001
Al  7.50108931E-001  4.97657133E-001  4.97520879E-001
Al  8.74816408E-001  6.25145782E-001  5.00067899E-001
Al  8.74934665E-001  4.99393320E-001  6.25009484E-001
Al  7.49210936E-001  6.25069166E-001  6.24840917E-001
Al  7.50156660E-001  4.99222278E-001  7.49898532E-001
Al  8.73566065E-001  6.24909851E-001  7.50568852E-001
Al  8.74660237E-001  4.99279797E-001  8.77246600E-001
Al  7.49062432E-001  6.25024466E-001  8.75057927E-001
Al  7.48716401E-001  7.50412703E-001  -2.48929941E-003
Al  8.72550690E-001  8.77499740E-001  7.56312580E-004
Al  8.73191511E-001  7.52499203E-001  1.25639928E-001
Al  7.50031382E-001  8.76496735E-001  1.24421061E-001
Al  7.49990802E-001  7.50376894E-001  2.50410479E-001
Al  8.75209594E-001  8.74143932E-001  2.52396106E-001
Al  8.73084056E-001  7.49091470E-001  3.73032220E-001
Al  7.47588513E-001  8.73600061E-001  3.75230128E-001
Al  7.52438359E-001  7.50008966E-001  5.00740897E-001
Al  8.77185453E-001  8.75018107E-001  5.02499698E-001
Al  8.77114766E-001  7.48372909E-001  6.24694284E-001
Al  7.50009310E-001  8.74872514E-001  6.25166525E-001
Al  7.48949778E-001  7.49991096E-001  7.52307610E-001
Al  8.74796551E-001  8.74966368E-001  7.49699251E-001
Al  8.75922259E-001  7.49991551E-001  8.75077292E-001
Al  7.50076514E-001  8.74517927E-001  8.73782920E-001
K_POINTS automatic
2 2 2 1 1 1
