&CONTROL
restart_mode = 'from_scratch',
calculation = 'scf',
outdir = '/gpfs/bb/bxp912/scratch',
pseudo_dir = '/gpfs/bb/bxp912/pseudopotentials',
prefix = '2.48000000E-001',
etot_conv_thr = 1.00000000E-007,
forc_conv_thr = 1.00000000E-007,
nstep = 200,
tprnfor = .true.,
tstress = .true.,
disk_io = 'low',
/
&SYSTEM
ibrav = 14,
celldm(1) = 3.05001797E+001,
celldm(2) = 1.00000000E+000,
celldm(3) = 1.00000000E+000,
celldm(4) = 0.00000000E+000,
celldm(5) = 0.00000000E+000,
celldm(6) = 0.00000000E+000,
nat = 256,
ntyp = 1,
ecutwfc = 35,
ecutrho = 208,
occupations = 'smearing',
smearing = 'mv',
degauss = 5.00000007E-002,
/
&ELECTRONS
diagonalization = 'david',
mixing_mode = plain,
mixing_beta = 6.99999988E-001,
conv_thr = 1.00000000E-007,
/
&IONS
ion_dynamics = 'bfgs',
/
&CELL
cell_dynamics = 'bfgs',
press = 0.00000000E+000,
cell_factor = 2.00000000E+000,
/
ATOMIC_SPECIES
Al  2.69815390E+001  Al.pbe-n-kjpaw_psl.0.1.UPF
ATOMIC_POSITIONS crystal
Al  1.10617470E-003  2.49684109E-003  -1.27974565E-003
Al  1.26054212E-001  1.23866701E-001  1.35610026E-003
Al  1.24974320E-001  -1.16740462E-003  1.24816930E-001
Al  -2.44528178E-003  1.25039451E-001  1.25026854E-001
Al  -2.16435826E-004  3.65019475E-005  2.49434032E-001
Al  1.27173722E-001  1.26041082E-001  2.50494683E-001
Al  1.25989712E-001  6.02397586E-005  3.74692365E-001
Al  -2.49961137E-003  1.24906489E-001  3.77454908E-001
Al  -6.16653375E-004  -4.85414172E-005  5.00089859E-001
Al  1.24207369E-001  1.27496558E-001  4.97819882E-001
Al  1.25056055E-001  3.07892698E-004  6.24329739E-001
Al  -2.30818805E-003  1.26798886E-001  6.25316792E-001
Al  4.71654160E-005  -1.82851908E-005  7.48019523E-001
Al  1.24991627E-001  1.27485956E-001  7.50008371E-001
Al  1.25018719E-001  -1.93292562E-003  8.75009522E-001
Al  1.33852241E-004  1.22837534E-001  8.74981614E-001
Al  -2.44894745E-005  2.50931963E-001  3.16832095E-005
Al  1.24972288E-001  3.74182439E-001  2.42356129E-003
Al  1.25350844E-001  2.49958666E-001  1.25057534E-001
Al  -4.75681557E-004  3.72745502E-001  1.22625104E-001
Al  2.27711143E-003  2.50370960E-001  2.50099848E-001
Al  1.24991280E-001  3.75465380E-001  2.50018825E-001
Al  1.27278961E-001  2.51603997E-001  3.75215250E-001
Al  1.94161503E-005  3.74132821E-001  3.72507852E-001
Al  -2.03205501E-003  2.47662815E-001  4.99236375E-001
Al  1.24854608E-001  3.75008866E-001  5.01723494E-001
Al  1.24045718E-001  2.49744751E-001  6.25023847E-001
Al  -1.94139374E-005  3.73730584E-001  6.25428508E-001
Al  2.44501898E-003  2.51751891E-001  7.47539867E-001
Al  1.24548778E-001  3.75411368E-001  7.47550714E-001
Al  1.23641347E-001  2.49817651E-001  8.74301211E-001
Al  2.36618204E-003  3.74954517E-001  8.74416104E-001
Al  -1.82222586E-005  5.00028196E-001  -1.17183824E-003
Al  1.23031282E-001  6.24485286E-001  1.71896538E-003
Al  1.25101242E-001  4.98371928E-001  1.23857778E-001
Al  4.47638941E-005  6.25150226E-001  1.27491621E-001
Al  2.94993285E-004  5.00089159E-001  2.50105070E-001
Al  1.25033475E-001  6.24418428E-001  2.50870999E-001
Al  1.27477614E-001  5.00377250E-001  3.72760054E-001
Al  1.49010981E-003  6.25053297E-001  3.74980230E-001
Al  2.41006331E-003  4.98051796E-001  5.00061326E-001
Al  1.27475794E-001  6.25126487E-001  4.98176631E-001
Al  1.22656550E-001  4.97663790E-001  6.25062701E-001
Al  1.41829002E-004  6.24981554E-001  6.24012070E-001
Al  -3.77546661E-004  5.01807060E-001  7.49525008E-001
Al  1.26729057E-001  6.23350486E-001  7.50892114E-001
Al  1.25103943E-001  4.98121711E-001  8.75128917E-001
Al  7.30831761E-004  6.24705257E-001  8.76872916E-001
Al  -1.05198677E-004  7.51386163E-001  -4.40505556E-005
Al  1.23072895E-001  8.74980053E-001  2.05672882E-003
Al  1.22668583E-001  7.49317616E-001  1.23668773E-001
Al  -2.66297809E-005  8.74981548E-001  1.27395648E-001
Al  -4.32563560E-004  7.48694822E-001  2.52419130E-001
Al  1.25371030E-001  8.76234363E-001  2.49864715E-001
Al  1.26011382E-001  7.50008422E-001  3.73827469E-001
Al  4.94231335E-005  8.74981168E-001  3.77427443E-001
Al  8.38532032E-006  7.49038258E-001  4.99431495E-001
Al  1.24903995E-001  8.75051651E-001  5.00029665E-001
Al  1.22674109E-001  7.49073894E-001  6.25009115E-001
Al  1.86558794E-003  8.75412247E-001  6.23022882E-001
Al  -2.46342689E-003  7.52457196E-001  7.47550207E-001
Al  1.23656488E-001  8.75102178E-001  7.49856554E-001
Al  1.25388879E-001  7.49981380E-001  8.72594479E-001
Al  -8.94428688E-004  8.75549485E-001  8.76249593E-001
Al  2.49489891E-001  1.47736701E-003  9.27817142E-005
Al  3.77181102E-001  1.25018550E-001  -8.37436050E-006
Al  3.74866730E-001  2.28713556E-005  1.23787347E-001
Al  2.48218315E-001  1.24594716E-001  1.24676650E-001
Al  2.47807406E-001  2.28863426E-003  2.47696969E-001
Al  3.73738733E-001  1.24864851E-001  2.49336740E-001
Al  3.73824726E-001  -1.40713791E-004  3.77444579E-001
Al  2.50638184E-001  1.25236850E-001  3.74077609E-001
Al  2.49931424E-001  2.46176487E-003  5.00809219E-001
Al  3.75263769E-001  1.25041285E-001  5.01390290E-001
Al  3.74980388E-001  1.08706375E-004  6.22887723E-001
Al  2.47659668E-001  1.27469351E-001  6.23542562E-001
Al  2.49898195E-001  9.33530415E-004  7.49085540E-001
Al  3.74973277E-001  1.24583840E-001  7.47996973E-001
Al  3.75018652E-001  -1.20664801E-003  8.74590589E-001
Al  2.49456838E-001  1.24981809E-001  8.73041613E-001
Al  2.51418123E-001  2.52334303E-001  1.05168803E-003
Al  3.74222351E-001  3.75513173E-001  1.05660710E-003
Al  3.76705935E-001  2.51609650E-001  1.24021450E-001
Al  2.50314707E-001  3.74268811E-001  1.25038271E-001
Al  2.51251772E-001  2.49981878E-001  2.49920041E-001
Al  3.72515034E-001  3.75021793E-001  2.50019271E-001
Al  3.74419865E-001  2.51493319E-001  3.74044536E-001
Al  2.52483164E-001  3.75553123E-001  3.77349033E-001
Al  2.51258071E-001  2.50749546E-001  4.99950629E-001
Al  3.75020456E-001  3.75139374E-001  5.00607704E-001
Al  3.74904791E-001  2.50031166E-001  6.24965910E-001
Al  2.51529916E-001  3.75082203E-001  6.24356374E-001
Al  2.50751818E-001  2.49981403E-001  7.52342997E-001
Al  3.76395935E-001  3.75018615E-001  7.50019401E-001
Al  3.77161264E-001  2.49981851E-001  8.77444832E-001
Al  2.49733443E-001  3.74408147E-001  8.74268273E-001
Al  2.52419847E-001  4.98358894E-001  9.41935973E-005
Al  3.75122577E-001  6.24925799E-001  3.65133141E-004
Al  3.75008389E-001  4.99164172E-001  1.27499975E-001
Al  2.49820709E-001  6.25019313E-001  1.23553333E-001
Al  2.49764614E-001  5.01891812E-001  2.49961343E-001
Al  3.75008844E-001  6.25027230E-001  2.52410357E-001
Al  3.74951208E-001  4.97698785E-001  3.75018995E-001
Al  2.51430364E-001  6.24131942E-001  3.74981278E-001
Al  2.48911730E-001  5.00905352E-001  4.99408935E-001
Al  3.77237831E-001  6.25931273E-001  4.98393574E-001
Al  3.77276635E-001  4.98924852E-001  6.27339269E-001
Al  2.50018858E-001  6.25026169E-001  6.24460474E-001
Al  2.52438384E-001  4.98283451E-001  7.50931107E-001
Al  3.72513680E-001  6.27492851E-001  7.47785366E-001
Al  3.73639919E-001  5.00097361E-001  8.77193125E-001
Al  2.49865123E-001  6.25121579E-001  8.74920028E-001
Al  2.49981503E-001  7.49902572E-001  -2.37351636E-003
Al  3.77296818E-001  8.74823911E-001  -2.23423698E-003
Al  3.77390472E-001  7.50806048E-001  1.24991141E-001
Al  2.49839137E-001  8.74374888E-001  1.22802863E-001
Al  2.49874314E-001  7.49667250E-001  2.50047440E-001
Al  3.74991139E-001  8.74991605E-001  2.50008584E-001
Al  3.74651424E-001  7.49810443E-001  3.76168739E-001
Al  2.48456961E-001  8.74905971E-001  3.73402686E-001
Al  2.48001596E-001  7.50128575E-001  4.99911104E-001
Al  3.74991528E-001  8.74923786E-001  4.98982220E-001
Al  3.74488921E-001  7.52030419E-001  6.23142181E-001
Al  2.50109785E-001  8.73393894E-001  6.25602544E-001
Al  2.50199015E-001  7.49634909E-001  7.49343930E-001
Al  3.75009086E-001  8.77162769E-001  7.49991313E-001
Al  3.76666813E-001  7.52270464E-001  8.74930457E-001
Al  2.48038728E-001  8.73653184E-001  8.75821672E-001
Al  5.00009044E-001  5.95204320E-004  -1.92847199E-004
Al  6.24961652E-001  1.25276159E-001  -3.63796179E-005
Al  6.26556830E-001  1.13442100E-003  1.26905624E-001
Al  4.97637825E-001  1.27485237E-001  1.27487310E-001
Al  4.99450327E-001  1.75295424E-003  2.48248013E-001
Al  6.23229461E-001  1.22500043E-001  2.50031759E-001
Al  6.24941699E-001  2.52721094E-005  3.75668393E-001
Al  4.98721395E-001  1.24962927E-001  3.75018185E-001
Al  4.99963839E-001  -1.42879888E-004  4.99734424E-001
Al  6.24990300E-001  1.22919687E-001  4.99358514E-001
Al  6.27409590E-001  1.13652734E-003  6.27230957E-001
Al  4.99748210E-001  1.25052144E-001  6.24579897E-001
Al  4.99939875E-001  -4.87221801E-005  7.50073529E-001
Al  6.23798469E-001  1.24186402E-001  7.49843628E-001
Al  6.24194419E-001  2.46393646E-003  8.77296144E-001
Al  4.99880859E-001  1.24948680E-001  8.74982142E-001
Al  4.99981195E-001  2.49854066E-001  -1.79651280E-003
Al  6.23712470E-001  3.74913645E-001  9.98718205E-005
Al  6.24074354E-001  2.48457961E-001  1.24853370E-001
Al  5.00134916E-001  3.74981892E-001  1.26554388E-001
Al  5.02199822E-001  2.49961520E-001  2.47694894E-001
Al  6.25132193E-001  3.73850390E-001  2.47884540E-001
Al  6.26657870E-001  2.50613429E-001  3.75068208E-001
Al  4.98730329E-001  3.75347955E-001  3.72536307E-001
Al  5.00351908E-001  2.52038841E-001  5.01826527E-001
Al  6.24972813E-001  3.73882595E-001  4.99528899E-001
Al  6.24991030E-001  2.50799519E-001  6.22741219E-001
Al  4.99981587E-001  3.73472640E-001  6.24853796E-001
Al  4.97756555E-001  2.52069799E-001  7.51260000E-001
Al  6.23336666E-001  3.75018226E-001  7.49822191E-001
Al  6.23000155E-001  2.47508043E-001  8.72604015E-001
Al  4.97781699E-001  3.76574685E-001  8.75229155E-001
Al  4.99981187E-001  5.00018900E-001  8.38033485E-006
Al  6.24475511E-001  6.27373544E-001  -4.64249624E-005
Al  6.25868381E-001  5.00321131E-001  1.26487053E-001
Al  5.00032355E-001  6.24238302E-001  1.22971033E-001
Al  4.99734169E-001  4.97542980E-001  2.47751331E-001
Al  6.22671020E-001  6.25009328E-001  2.50878721E-001
Al  6.25042398E-001  4.99981163E-001  3.75274829E-001
Al  5.00039758E-001  6.25087999E-001  3.74991474E-001
Al  5.02247188E-001  4.97524044E-001  4.99931999E-001
Al  6.24991620E-001  6.25539427E-001  5.00973085E-001
Al  6.25127639E-001  5.00407587E-001  6.24788270E-001
Al  4.98182044E-001  6.24625976E-001  6.24684365E-001
Al  4.97879379E-001  5.02075631E-001  7.52494750E-001
Al  6.25018313E-001  6.25654553E-001  7.48015232E-001
Al  6.22773528E-001  5.00614832E-001  8.75028900E-001
Al  5.01170325E-001  6.27241689E-001  8.74235249E-001
Al  4.99636979E-001  7.50027225E-001  2.36295261E-004
Al  6.25148518E-001  8.77334203E-001  3.83241776E-004
Al  6.25009214E-001  7.47643383E-001  1.24500438E-001
Al  4.99410984E-001  8.75561903E-001  1.26698693E-001
Al  4.99924229E-001  7.49095106E-001  2.49981658E-001
Al  6.25018284E-001  8.75820721E-001  2.47760695E-001
Al  6.26572520E-001  7.49786004E-001  3.72524323E-001
Al  5.00455241E-001  8.74905490E-001  3.74335245E-001
Al  4.99990342E-001  7.47599345E-001  4.97595608E-001
Al  6.25404020E-001  8.77376570E-001  4.99980279E-001
Al  6.26223742E-001  7.49801291E-001  6.24980554E-001
Al  4.98419701E-001  8.76037905E-001  6.25023052E-001
Al  5.00020637E-001  7.49991570E-001  7.49000268E-001
Al  6.25255674E-001  8.75557845E-001  7.51180847E-001
Al  6.24829569E-001  7.47562176E-001  8.74583274E-001
Al  5.00070552E-001  8.75020213E-001  8.73475472E-001
Al  7.49171423E-001  -2.10214463E-003  2.12614503E-003
Al  8.74020130E-001  1.26769766E-001  -8.41041073E-004
Al  8.74978235E-001  5.34700267E-004  1.24837721E-001
Al  7.50115710E-001  1.26041204E-001  1.25051350E-001
Al  7.51612313E-001  -3.98904959E-005  2.52443760E-001
Al  8.74873850E-001  1.24559129E-001  2.52499946E-001
Al  8.75694091E-001  -1.92942741E-004  3.77391341E-001
Al  7.49870260E-001  1.26779816E-001  3.76323352E-001
Al  7.50793820E-001  -8.67702527E-004  4.97537332E-001
Al  8.74991190E-001  1.26200707E-001  5.00170290E-001
Al  8.75809551E-001  2.16906573E-003  6.24939023E-001
Al  7.52144299E-001  1.27499808E-001  6.25557503E-001
Al  7.51276750E-001  8.06555553E-005  7.49926230E-001
Al  8.75108823E-001  1.25018727E-001  7.50174202E-001
Al  8.75148611E-001  2.41741297E-003  8.73195597E-001
Al  7.49131592E-001  1.24862580E-001  8.72707012E-001
Al  7.49980792E-001  2.52430705E-001  5.24444227E-004
Al  8.76062104E-001  3.73634858E-001  -1.29821637E-003
Al  8.77009708E-001  2.51170451E-001  1.25020814E-001
Al  7.49901374E-001  3.74981599E-001  1.22945167E-001
Al  7.50026564E-001  2.48770039E-001  2.47519868E-001
Al  8.72702421E-001  3.75018323E-001  2.51041755E-001
Al  8.74863611E-001  2.51969052E-001  3.75027816E-001
Al  7.50868411E-001  3.75028371E-001  3.75008776E-001
Al  7.50038395E-001  2.50008729E-001  4.98490158E-001
Al  8.75024903E-001  3.75704097E-001  5.00008371E-001
Al  8.75146206E-001  2.49891757E-001  6.26578449E-001
Al  7.49210292E-001  3.76207905E-001  6.22540465E-001
Al  7.50022421E-001  2.52326333E-001  7.47540613E-001
Al  8.77057987E-001  3.75032780E-001  7.51369601E-001
Al  8.75058585E-001  2.49064034E-001  8.74701202E-001
Al  7.49991457E-001  3.76317181E-001  8.74959507E-001
Al  7.49574131E-001  5.02024333E-001  2.00193912E-005
Al  8.74991074E-001  6.27096927E-001  6.36723788E-004
Al  8.75043028E-001  5.00887702E-001  1.24977165E-001
Al  7.50528872E-001  6.24881977E-001  1.25355233E-001
Al  7.49825781E-001  5.00258868E-001  2.51509687E-001
Al  8.74673535E-001  6.24980661E-001  2.50102340E-001
Al  8.73562268E-001  5.01104712E-001  3.74980128E-001
Al  7.50122127E-001  6.24981045E-001  3.75064142E-001
Al  7.50117063E-001  4.99927330E-001  4.99991252E-001
Al  8.74348059E-001  6.25018456E-001  5.00260570E-001
Al  8.75565556E-001  4.97707781E-001  6.22693646E-001
Al  7.50381333E-001  6.25411940E-001  6.25958240E-001
Al  7.50241060E-001  4.98333653E-001  7.50912463E-001
Al  8.75031326E-001  6.23798708E-001  7.50188621E-001
Al  8.76246995E-001  5.00018136E-001  8.74982809E-001
Al  7.47684902E-001  6.24640703E-001  8.75031636E-001
Al  7.52408335E-001  7.51976468E-001  -1.91571590E-004
Al  8.73677510E-001  8.77339830E-001  5.61550277E-005
Al  8.75018495E-001  7.47507588E-001  1.24644687E-001
Al  7.50539082E-001  8.74991319E-001  1.24890654E-001
Al  7.50800184E-001  7.49169824E-001  2.48269703E-001
Al  8.72762043E-001  8.73020906E-001  2.49980911E-001
Al  8.74286111E-001  7.49865969E-001  3.75018748E-001
Al  7.51249295E-001  8.72951370E-001  3.76760658E-001
Al  7.50892074E-001  7.51108651E-001  4.98468905E-001
Al  8.73865114E-001  8.77204623E-001  4.99872870E-001
Al  8.74991447E-001  7.47500551E-001  6.24972243E-001
Al  7.50455164E-001  8.74957784E-001  6.27497039E-001
Al  7.49980197E-001  7.51729771E-001  7.48698049E-001
Al  8.74920632E-001  8.75018592E-001  7.50017315E-001
Al  8.74600376E-001  7.50491953E-001  8.75008389E-001
Al  7.49335612E-001  8.73454358E-001  8.76678537E-001
K_POINTS automatic
2 2 2 1 1 1
