&CONTROL
restart_mode = 'from_scratch',
calculation = 'scf',
outdir = '/gpfs/bb/bxp912/scratch',
pseudo_dir = '/gpfs/bb/bxp912/pseudopotentials',
prefix = '2.48000000E-001',
etot_conv_thr = 1.00000000E-007,
forc_conv_thr = 1.00000000E-007,
nstep = 200,
tprnfor = .true.,
tstress = .true.,
disk_io = 'low',
/
&SYSTEM
ibrav = 14,
celldm(1) = 3.05001797E+001,
celldm(2) = 1.00000000E+000,
celldm(3) = 1.00000000E+000,
celldm(4) = 0.00000000E+000,
celldm(5) = 0.00000000E+000,
celldm(6) = 0.00000000E+000,
nat = 256,
ntyp = 1,
ecutwfc = 35,
ecutrho = 208,
occupations = 'smearing',
smearing = 'mv',
degauss = 5.00000007E-002,
/
&ELECTRONS
diagonalization = 'david',
mixing_mode = plain,
mixing_beta = 6.99999988E-001,
conv_thr = 1.00000000E-007,
/
&IONS
ion_dynamics = 'bfgs',
/
&CELL
cell_dynamics = 'bfgs',
press = 0.00000000E+000,
cell_factor = 2.00000000E+000,
/
ATOMIC_SPECIES
Al  2.69815390E+001  Al.pbe-n-kjpaw_psl.0.1.UPF
ATOMIC_POSITIONS crystal
Al  -1.92736905E-005  3.06451455E-004  -1.92934306E-003
Al  1.27250578E-001  1.24981616E-001  1.81395273E-005
Al  1.22593368E-001  -6.41679206E-004  1.26083094E-001
Al  -1.06196422E-003  1.22520910E-001  1.23773656E-001
Al  -6.77596528E-005  4.98325860E-004  2.48948892E-001
Al  1.27382001E-001  1.23144549E-001  2.51397378E-001
Al  1.25023386E-001  -2.32073572E-003  3.74981387E-001
Al  2.57147343E-005  1.25127248E-001  3.75468381E-001
Al  2.49774351E-003  3.55717087E-004  5.00106888E-001
Al  1.27293002E-001  1.25158808E-001  4.99447913E-001
Al  1.25392328E-001  -6.63658344E-005  6.25237247E-001
Al  -5.17405922E-004  1.25008998E-001  6.23171027E-001
Al  1.84989336E-005  -8.09925398E-004  7.50931595E-001
Al  1.26536641E-001  1.27495891E-001  7.48773418E-001
Al  1.24971824E-001  -2.49562452E-005  8.74981879E-001
Al  1.81430647E-003  1.24659196E-001  8.76234698E-001
Al  -1.82324219E-003  2.49883338E-001  1.26842006E-004
Al  1.23780350E-001  3.73994453E-001  5.65047308E-004
Al  1.24181928E-001  2.50419082E-001  1.24446023E-001
Al  1.22368038E-003  3.74969787E-001  1.25159745E-001
Al  1.94548063E-005  2.49539764E-001  2.48146964E-001
Al  1.25008445E-001  3.72883096E-001  2.51999668E-001
Al  1.27164584E-001  2.47623162E-001  3.73346087E-001
Al  3.12610336E-004  3.72868931E-001  3.74292286E-001
Al  1.14687754E-003  2.47503557E-001  4.97801924E-001
Al  1.25018109E-001  3.74886469E-001  4.99858525E-001
Al  1.27006281E-001  2.49981646E-001  6.25217347E-001
Al  2.64003698E-005  3.77488241E-001  6.26875799E-001
Al  -5.79799295E-004  2.49953036E-001  7.49527998E-001
Al  1.22518406E-001  3.75019487E-001  7.52499211E-001
Al  1.27100158E-001  2.49065649E-001  8.74981551E-001
Al  -1.30929315E-003  3.76142879E-001  8.73023469E-001
Al  -4.04564623E-004  5.00175425E-001  -1.73621975E-003
Al  1.26058462E-001  6.25018597E-001  -1.68749717E-004
Al  1.24990776E-001  4.99936499E-001  1.24842769E-001
Al  -5.97872640E-004  6.25033144E-001  1.27007931E-001
Al  -3.90102882E-004  4.98358165E-001  2.49276579E-001
Al  1.24537948E-001  6.26319689E-001  2.49734401E-001
Al  1.23258537E-001  5.00091402E-001  3.75018231E-001
Al  2.69313148E-005  6.25008737E-001  3.72549632E-001
Al  8.47940103E-006  4.99939701E-001  4.97579174E-001
Al  1.24897870E-001  6.24448081E-001  5.01844501E-001
Al  1.24347230E-001  5.02462481E-001  6.27299362E-001
Al  4.88718063E-005  6.24669725E-001  6.24737729E-001
Al  -1.86518494E-005  5.00029538E-001  7.49606067E-001
Al  1.25019136E-001  6.22765187E-001  7.50465335E-001
Al  1.26884073E-001  5.00420683E-001  8.77470225E-001
Al  7.71994402E-004  6.27499657E-001  8.75019218E-001
Al  -1.43057290E-003  7.52437275E-001  5.57287670E-004
Al  1.23729908E-001  8.76993852E-001  1.42695806E-003
Al  1.26001254E-001  7.50017006E-001  1.25063059E-001
Al  -2.15395842E-003  8.73642032E-001  1.24696179E-001
Al  1.30793951E-004  7.52495693E-001  2.50214400E-001
Al  1.26289220E-001  8.73072734E-001  2.49850069E-001
Al  1.24778369E-001  7.51361285E-001  3.74991145E-001
Al  2.71056303E-004  8.74981285E-001  3.76781672E-001
Al  -1.63830343E-003  7.52310546E-001  5.02319322E-001
Al  1.25034994E-001  8.74877477E-001  5.01706641E-001
Al  1.24854311E-001  7.50396058E-001  6.27185871E-001
Al  6.66360952E-005  8.72651300E-001  6.24424782E-001
Al  2.16786975E-003  7.48618757E-001  7.50189630E-001
Al  1.27395430E-001  8.73011515E-001  7.50031944E-001
Al  1.25588461E-001  7.50008402E-001  8.73508688E-001
Al  -6.89763145E-005  8.76320641E-001  8.75008529E-001
Al  2.49818171E-001  -7.34380741E-004  2.43221959E-003
Al  3.77476422E-001  1.23360492E-001  1.57275457E-003
Al  3.72920418E-001  1.44911996E-004  1.27122754E-001
Al  2.48844932E-001  1.23825464E-001  1.25020228E-001
Al  2.50039982E-001  5.48432840E-004  2.50040156E-001
Al  3.75008763E-001  1.25020235E-001  2.49981210E-001
Al  3.74673754E-001  -1.20736636E-003  3.75053207E-001
Al  2.52460649E-001  1.24859601E-001  3.75377932E-001
Al  2.52312645E-001  -9.03917206E-004  4.97763837E-001
Al  3.72996528E-001  1.24342141E-001  5.00155955E-001
Al  3.75008435E-001  1.73302619E-003  6.24243309E-001
Al  2.50019649E-001  1.25685943E-001  6.24934519E-001
Al  2.49903626E-001  7.95651693E-004  7.51598827E-001
Al  3.75895438E-001  1.25181505E-001  7.49440672E-001
Al  3.76054973E-001  1.07260477E-003  8.75617493E-001
Al  2.52408098E-001  1.27001548E-001  8.75018451E-001
Al  2.47664851E-001  2.50302564E-001  -5.28007932E-004
Al  3.74648475E-001  3.73837787E-001  4.45082347E-004
Al  3.72500835E-001  2.48489430E-001  1.25650218E-001
Al  2.51960768E-001  3.75407403E-001  1.26193450E-001
Al  2.51907377E-001  2.49980541E-001  2.52376289E-001
Al  3.74498172E-001  3.75018934E-001  2.50502946E-001
Al  3.72563771E-001  2.50392979E-001  3.75073987E-001
Al  2.49980117E-001  3.74977017E-001  3.75008371E-001
Al  2.50095984E-001  2.49669224E-001  5.00699042E-001
Al  3.72536812E-001  3.76256592E-001  4.98342899E-001
Al  3.76162189E-001  2.48691338E-001  6.24964286E-001
Al  2.47744366E-001  3.76534046E-001  6.25040987E-001
Al  2.52491956E-001  2.49888833E-001  7.50075413E-001
Al  3.74953520E-001  3.74554407E-001  7.50159923E-001
Al  3.74789305E-001  2.50258542E-001  8.73533044E-001
Al  2.50121401E-001  3.77442897E-001  8.77055014E-001
Al  2.48564998E-001  5.00009472E-001  6.86292485E-004
Al  3.75873053E-001  6.24991537E-001  -2.86660355E-004
Al  3.75481516E-001  5.02314355E-001  1.25018897E-001
Al  2.47562188E-001  6.25308658E-001  1.25986837E-001
Al  2.49333388E-001  5.00230396E-001  2.49979828E-001
Al  3.75026008E-001  6.22823190E-001  2.50405208E-001
Al  3.73383378E-001  4.99787198E-001  3.75215767E-001
Al  2.50165608E-001  6.27049362E-001  3.77003352E-001
Al  2.47566517E-001  5.00265211E-001  5.00033914E-001
Al  3.77243427E-001  6.25628314E-001  4.98798934E-001
Al  3.75323259E-001  4.98043724E-001  6.25419311E-001
Al  2.49702575E-001  6.24282678E-001  6.25020660E-001
Al  2.50044070E-001  4.99162161E-001  7.50047712E-001
Al  3.74225702E-001  6.27280142E-001  7.50404254E-001
Al  3.74977934E-001  4.99734494E-001  8.74991447E-001
Al  2.48700914E-001  6.24757185E-001  8.76234159E-001
Al  2.49981345E-001  7.49741193E-001  8.41316440E-006
Al  3.75018599E-001  8.75017968E-001  1.59061874E-004
Al  3.75747221E-001  7.49981554E-001  1.25744056E-001
Al  2.49975524E-001  8.75063358E-001  1.26338808E-001
Al  2.51601275E-001  7.52158346E-001  2.50018736E-001
Al  3.75122722E-001  8.73974471E-001  2.51188987E-001
Al  3.73376136E-001  7.49041999E-001  3.75378569E-001
Al  2.51096147E-001  8.72549593E-001  3.75081837E-001
Al  2.49571589E-001  7.47515858E-001  4.99990645E-001
Al  3.73939348E-001  8.74658268E-001  4.98156785E-001
Al  3.77384705E-001  7.50030330E-001  6.24981839E-001
Al  2.52479671E-001  8.75018547E-001  6.27184077E-001
Al  2.48826569E-001  7.51177713E-001  7.48841483E-001
Al  3.75071028E-001  8.72743943E-001  7.47500377E-001
Al  3.75008409E-001  7.52133440E-001  8.75019370E-001
Al  2.51899647E-001  8.75209687E-001  8.76346151E-001
Al  5.00008649E-001  2.87044930E-005  8.38671476E-006
Al  6.25571949E-001  1.24609153E-001  4.32128761E-004
Al  6.27444223E-001  -3.85316692E-005  1.26793365E-001
Al  5.00474155E-001  1.26006585E-001  1.24730486E-001
Al  5.00043750E-001  -1.95339291E-003  2.50444185E-001
Al  6.25158559E-001  1.24991627E-001  2.47677942E-001
Al  6.24967212E-001  -1.45357350E-003  3.75024404E-001
Al  5.01100512E-001  1.24169864E-001  3.77434740E-001
Al  4.99990956E-001  -2.47119608E-003  5.00646476E-001
Al  6.25106230E-001  1.25017581E-001  4.99449280E-001
Al  6.24872991E-001  2.26811932E-004  6.23476117E-001
Al  4.98075222E-001  1.24991107E-001  6.25027015E-001
Al  4.99991605E-001  1.95806926E-005  7.50680229E-001
Al  6.24719023E-001  1.27485188E-001  7.51560339E-001
Al  6.24928417E-001  2.65488731E-005  8.77493850E-001
Al  4.99980418E-001  1.25209225E-001  8.77313176E-001
Al  5.00522711E-001  2.49800989E-001  1.20478514E-004
Al  6.22901557E-001  3.75076358E-001  -7.58465030E-004
Al  6.25031983E-001  2.48397816E-001  1.25026850E-001
Al  5.00229081E-001  3.73635223E-001  1.22862826E-001
Al  4.99736262E-001  2.52263424E-001  2.50008644E-001
Al  6.25717849E-001  3.73582553E-001  2.50510152E-001
Al  6.24990315E-001  2.50595722E-001  3.72613666E-001
Al  4.99912821E-001  3.74595880E-001  3.72809702E-001
Al  5.02230893E-001  2.49723573E-001  4.99237246E-001
Al  6.24990895E-001  3.77352934E-001  4.98553430E-001
Al  6.23888289E-001  2.52328046E-001  6.25022947E-001
Al  5.01951655E-001  3.74991249E-001  6.24967640E-001
Al  5.00037195E-001  2.50018250E-001  7.47541545E-001
Al  6.25282110E-001  3.74981146E-001  7.49497097E-001
Al  6.25018925E-001  2.50008558E-001  8.74756381E-001
Al  5.02309642E-001  3.75674345E-001  8.74981575E-001
Al  5.00216806E-001  5.02483542E-001  4.78115301E-004
Al  6.25089099E-001  6.24724815E-001  -2.43180600E-003
Al  6.24949046E-001  4.99819273E-001  1.22569759E-001
Al  5.02449335E-001  6.25272017E-001  1.23829062E-001
Al  5.01698388E-001  4.99240254E-001  2.49702325E-001
Al  6.26097042E-001  6.27499332E-001  2.49438112E-001
Al  6.22648084E-001  4.97854356E-001  3.77131668E-001
Al  4.99991603E-001  6.24230332E-001  3.74873476E-001
Al  5.00785243E-001  4.99407495E-001  4.99964225E-001
Al  6.24164850E-001  6.25075381E-001  4.99348093E-001
Al  6.26238828E-001  4.99968439E-001  6.24586380E-001
Al  4.99460306E-001  6.24851490E-001  6.25281283E-001
Al  4.99991077E-001  5.01192981E-001  7.52388683E-001
Al  6.24636886E-001  6.26355113E-001  7.50008398E-001
Al  6.27280983E-001  5.00487915E-001  8.75444959E-001
Al  4.98930456E-001  6.24412550E-001  8.75192726E-001
Al  5.01457899E-001  7.47969663E-001  -7.99336748E-005
Al  6.25760530E-001  8.76206659E-001  -9.53245168E-004
Al  6.24976413E-001  7.50018357E-001  1.24980448E-001
Al  5.00021999E-001  8.75018151E-001  1.22719806E-001
Al  4.97634089E-001  7.49383844E-001  2.51932188E-001
Al  6.22551644E-001  8.75496769E-001  2.49379299E-001
Al  6.22708481E-001  7.50109564E-001  3.74931284E-001
Al  5.00581802E-001  8.75063031E-001  3.74628399E-001
Al  5.00522794E-001  7.47831963E-001  4.98407967E-001
Al  6.24183841E-001  8.74379579E-001  4.99053135E-001
Al  6.25487489E-001  7.50867185E-001  6.22602904E-001
Al  5.00885086E-001  8.74560606E-001  6.24162293E-001
Al  4.97802447E-001  7.50092357E-001  7.49960006E-001
Al  6.25033577E-001  8.74978899E-001  7.50242623E-001
Al  6.24991630E-001  7.50041380E-001  8.75691389E-001
Al  5.02241245E-001  8.74962322E-001  8.77472453E-001
Al  7.49981620E-001  2.41992534E-005  2.49691738E-003
Al  8.73236554E-001  1.26872777E-001  -2.40206548E-003
Al  8.75654068E-001  1.26503450E-003  1.24980980E-001
Al  7.50018916E-001  1.24991308E-001  1.25224829E-001
Al  7.49841299E-001  1.49827622E-003  2.48159974E-001
Al  8.75109988E-001  1.27418548E-001  2.50033435E-001
Al  8.74472483E-001  1.86836757E-003  3.74882033E-001
Al  7.49603918E-001  1.25112883E-001  3.74368265E-001
Al  7.51997799E-001  2.14022227E-003  4.99780685E-001
Al  8.75231732E-001  1.26727004E-001  4.99397701E-001
Al  8.75203597E-001  7.55977239E-005  6.22536561E-001
Al  7.50307463E-001  1.25047011E-001  6.24088544E-001
Al  7.52047253E-001  -5.59001940E-005  7.51287613E-001
Al  8.74420438E-001  1.27487767E-001  7.50018852E-001
Al  8.76442865E-001  3.18566081E-005  8.74069732E-001
Al  7.50106073E-001  1.25018249E-001  8.76915698E-001
Al  7.49379728E-001  2.49981889E-001  1.80763748E-003
Al  8.77047060E-001  3.75173186E-001  -1.84090454E-005
Al  8.75758567E-001  2.50019180E-001  1.25941830E-001
Al  7.49905919E-001  3.74198581E-001  1.24961501E-001
Al  7.50137277E-001  2.50019014E-001  2.49690852E-001
Al  8.77229530E-001  3.75087235E-001  2.49857988E-001
Al  8.77307297E-001  2.50057336E-001  3.75265050E-001
Al  7.49652563E-001  3.76280826E-001  3.75008566E-001
Al  7.51675366E-001  2.52115940E-001  4.98980893E-001
Al  8.73312005E-001  3.77499362E-001  4.98630625E-001
Al  8.77016498E-001  2.47714536E-001  6.23789294E-001
Al  7.52453124E-001  3.75531083E-001  6.27482024E-001
Al  7.47582036E-001  2.49843874E-001  7.48236830E-001
Al  8.74979253E-001  3.76519146E-001  7.49981845E-001
Al  8.74953733E-001  2.51535840E-001  8.72604825E-001
Al  7.48969170E-001  3.74980468E-001  8.75951353E-001
Al  7.49991217E-001  4.98937581E-001  -2.46157726E-003
Al  8.77300327E-001  6.25189109E-001  2.43481226E-003
Al  8.74885784E-001  5.00153278E-001  1.22571527E-001
Al  7.49800004E-001  6.25184715E-001  1.27446034E-001
Al  7.47610333E-001  4.99593329E-001  2.50098411E-001
Al  8.75018507E-001  6.25866741E-001  2.51541364E-001
Al  8.76130875E-001  4.99963627E-001  3.75093680E-001
Al  7.49802847E-001  6.24949635E-001  3.75214156E-001
Al  7.49943305E-001  5.00498828E-001  4.99981165E-001
Al  8.75118932E-001  6.23494417E-001  4.99466572E-001
Al  8.75421965E-001  5.00627814E-001  6.25309703E-001
Al  7.50916521E-001  6.24990993E-001  6.25030436E-001
Al  7.49981886E-001  4.98656925E-001  7.49991317E-001
Al  8.72906353E-001  6.27132216E-001  7.49489391E-001
Al  8.77313124E-001  5.01178133E-001  8.77498431E-001
Al  7.50663138E-001  6.23673077E-001  8.74656127E-001
Al  7.50018326E-001  7.49960335E-001  2.38099678E-005
Al  8.76936770E-001  8.75106715E-001  6.70166612E-004
Al  8.76386528E-001  7.49518812E-001  1.25178233E-001
Al  7.50102965E-001  8.74957660E-001  1.26006768E-001
Al  7.51643854E-001  7.51068862E-001  2.50258450E-001
Al  8.76972417E-001  8.73998124E-001  2.48247370E-001
Al  8.75955902E-001  7.51443903E-001  3.74953916E-001
Al  7.49883202E-001  8.75008395E-001  3.72612103E-001
Al  7.50541894E-001  7.50018107E-001  4.99903929E-001
Al  8.75018586E-001  8.75044566E-001  5.00027664E-001
Al  8.72516883E-001  7.50122723E-001  6.26002805E-001
Al  7.50159043E-001  8.75130804E-001  6.23802294E-001
Al  7.49979059E-001  7.51566947E-001  7.48028394E-001
Al  8.75144509E-001  8.73859681E-001  7.47985872E-001
Al  8.74973542E-001  7.48650862E-001  8.76356793E-001
Al  7.49198343E-001  8.72855878E-001  8.76690220E-001
K_POINTS automatic
2 2 2 1 1 1
