&CONTROL
restart_mode = 'from_scratch',
calculation = 'scf',
outdir = '/gpfs/bb/bxp912/scratch',
pseudo_dir = '/gpfs/bb/bxp912/pseudopotentials',
prefix = '2.48000000E-001',
etot_conv_thr = 1.00000000E-007,
forc_conv_thr = 1.00000000E-007,
nstep = 200,
tprnfor = .true.,
tstress = .true.,
disk_io = 'low',
/
&SYSTEM
ibrav = 14,
celldm(1) = 3.05001797E+001,
celldm(2) = 1.00000000E+000,
celldm(3) = 1.00000000E+000,
celldm(4) = 0.00000000E+000,
celldm(5) = 0.00000000E+000,
celldm(6) = 0.00000000E+000,
nat = 256,
ntyp = 1,
ecutwfc = 35,
ecutrho = 208,
occupations = 'smearing',
smearing = 'mv',
degauss = 5.00000007E-002,
/
&ELECTRONS
diagonalization = 'david',
mixing_mode = plain,
mixing_beta = 6.99999988E-001,
conv_thr = 1.00000000E-007,
/
&IONS
ion_dynamics = 'bfgs',
/
&CELL
cell_dynamics = 'bfgs',
press = 0.00000000E+000,
cell_factor = 2.00000000E+000,
/
ATOMIC_SPECIES
Al  2.69815390E+001  Al.pbe-n-kjpaw_psl.0.1.UPF
ATOMIC_POSITIONS crystal
Al  -2.32732172E-003  -9.56646814E-006  -2.49227834E-004
Al  1.25440661E-001  1.26520103E-001  -1.34121362E-004
Al  1.24339615E-001  2.65586167E-004  1.22950954E-001
Al  2.03041134E-003  1.24932974E-001  1.25008375E-001
Al  3.01883268E-004  -4.20297616E-004  2.49935764E-001
Al  1.24169173E-001  1.23381148E-001  2.49957956E-001
Al  1.24970205E-001  -2.46772996E-003  3.73335766E-001
Al  1.85263576E-003  1.26139313E-001  3.74603678E-001
Al  -1.50251165E-004  -2.44532119E-003  4.97928028E-001
Al  1.25008984E-001  1.25465986E-001  5.02426213E-001
Al  1.25018479E-001  1.33304155E-004  6.24991627E-001
Al  -1.75845308E-004  1.26808702E-001  6.27499364E-001
Al  -4.84354232E-005  3.55019784E-004  7.49933109E-001
Al  1.25053567E-001  1.24991413E-001  7.49927784E-001
Al  1.22556588E-001  2.02898307E-003  8.74643070E-001
Al  -1.61695425E-004  1.25094748E-001  8.72997782E-001
Al  -2.23622833E-003  2.48095916E-001  -5.30295065E-004
Al  1.24927507E-001  3.74890042E-001  -9.24662328E-004
Al  1.24981135E-001  2.50020321E-001  1.27252061E-001
Al  2.38826302E-003  3.74991492E-001  1.24977990E-001
Al  -1.48764192E-003  2.49933361E-001  2.48745043E-001
Al  1.24881091E-001  3.72554245E-001  2.49313368E-001
Al  1.25433391E-001  2.49976128E-001  3.75888998E-001
Al  -1.19284080E-003  3.75037915E-001  3.76164175E-001
Al  -1.88761489E-005  2.49161739E-001  4.99581919E-001
Al  1.23023846E-001  3.75125804E-001  5.00966604E-001
Al  1.25423532E-001  2.47500005E-001  6.24991620E-001
Al  -2.05351675E-003  3.75800808E-001  6.24347155E-001
Al  -8.37583811E-006  2.47746974E-001  7.52280424E-001
Al  1.26694683E-001  3.75197478E-001  7.48126398E-001
Al  1.24962027E-001  2.49948543E-001  8.77400817E-001
Al  -2.19410425E-003  3.74883911E-001  8.74523118E-001
Al  -1.60440018E-003  4.98018507E-001  -1.93516222E-005
Al  1.25496984E-001  6.25718130E-001  -2.43397981E-003
Al  1.25283252E-001  4.99697610E-001  1.24385890E-001
Al  -1.06008225E-004  6.22578224E-001  1.25029803E-001
Al  1.82897086E-003  4.99991563E-001  2.52398590E-001
Al  1.24766939E-001  6.24785142E-001  2.49991601E-001
Al  1.25026965E-001  5.00952564E-001  3.75127477E-001
Al  -2.02010526E-005  6.24813230E-001  3.74980699E-001
Al  -2.13393050E-004  5.00268300E-001  5.00058524E-001
Al  1.25008397E-001  6.25062712E-001  5.00025652E-001
Al  1.26243518E-001  4.98040633E-001  6.25102069E-001
Al  4.80528374E-005  6.23398339E-001  6.24991627E-001
Al  -8.80310045E-005  4.99268438E-001  7.49094984E-001
Al  1.24537772E-001  6.25018232E-001  7.50355128E-001
Al  1.25260191E-001  4.99737182E-001  8.75008556E-001
Al  1.72196764E-003  6.25057039E-001  8.75030107E-001
Al  -2.08033975E-003  7.47863864E-001  1.28367868E-004
Al  1.23408960E-001  8.75018231E-001  -2.48372172E-003
Al  1.25418682E-001  7.49655767E-001  1.23157044E-001
Al  1.59999886E-004  8.72745283E-001  1.25546093E-001
Al  1.28688755E-003  7.50018588E-001  2.48959530E-001
Al  1.23047369E-001  8.73556849E-001  2.50030499E-001
Al  1.26440291E-001  7.50459195E-001  3.75328888E-001
Al  2.24885701E-003  8.74687200E-001  3.73700190E-001
Al  1.92102222E-003  7.50019699E-001  4.99294232E-001
Al  1.22575481E-001  8.74847290E-001  5.01892351E-001
Al  1.24973476E-001  7.50055278E-001  6.24101763E-001
Al  -9.50521678E-004  8.76448634E-001  6.24829362E-001
Al  -2.33472623E-004  7.49927537E-001  7.51656770E-001
Al  1.25146548E-001  8.74980866E-001  7.49860130E-001
Al  1.25174172E-001  7.50348421E-001  8.75018570E-001
Al  -2.75383466E-004  8.75791527E-001  8.77355393E-001
Al  2.51706863E-001  -1.93568214E-005  -1.35616951E-003
Al  3.72550060E-001  1.23253106E-001  -7.33665468E-005
Al  3.72600462E-001  -2.28327267E-003  1.27411544E-001
Al  2.50049847E-001  1.23779109E-001  1.22515633E-001
Al  2.49830430E-001  2.86697428E-004  2.49926451E-001
Al  3.74612553E-001  1.24991443E-001  2.49422991E-001
Al  3.74799851E-001  7.32089792E-005  3.75123067E-001
Al  2.49991095E-001  1.23267848E-001  3.73993301E-001
Al  2.49982389E-001  3.14941510E-004  5.00865438E-001
Al  3.74126004E-001  1.25008371E-001  4.99546046E-001
Al  3.74614624E-001  -6.58096998E-005  6.24981703E-001
Al  2.51349358E-001  1.23623143E-001  6.23582467E-001
Al  2.50009090E-001  4.72388633E-004  7.49966808E-001
Al  3.74981769E-001  1.25008952E-001  7.49474436E-001
Al  3.72605145E-001  5.23200965E-004  8.74982519E-001
Al  2.50662128E-001  1.24846318E-001  8.72865430E-001
Al  2.49392723E-001  2.47958437E-001  5.42685455E-005
Al  3.75899769E-001  3.76540090E-001  2.24946761E-005
Al  3.75257233E-001  2.51201755E-001  1.22591335E-001
Al  2.47505386E-001  3.72721413E-001  1.24495137E-001
Al  2.50136812E-001  2.49469330E-001  2.49304558E-001
Al  3.73662336E-001  3.74990596E-001  2.50018109E-001
Al  3.74356668E-001  2.52455267E-001  3.74543924E-001
Al  2.51180567E-001  3.72519168E-001  3.75065845E-001
Al  2.51337915E-001  2.50154091E-001  5.02471598E-001
Al  3.73994798E-001  3.75074057E-001  5.01687743E-001
Al  3.74199952E-001  2.50335347E-001  6.25869089E-001
Al  2.50581649E-001  3.72553473E-001  6.24960824E-001
Al  2.48161355E-001  2.50958941E-001  7.50151112E-001
Al  3.75018444E-001  3.77489704E-001  7.49928707E-001
Al  3.73472475E-001  2.49991474E-001  8.75167950E-001
Al  2.49965988E-001  3.77353715E-001  8.75734046E-001
Al  2.49151907E-001  5.00745185E-001  6.20417155E-004
Al  3.75670903E-001  6.26408519E-001  -2.49289916E-003
Al  3.73331324E-001  4.99737008E-001  1.24931101E-001
Al  2.49982367E-001  6.27491094E-001  1.23756705E-001
Al  2.52389068E-001  4.98838836E-001  2.48263536E-001
Al  3.72502167E-001  6.25020033E-001  2.48371541E-001
Al  3.72824086E-001  5.00092066E-001  3.77134854E-001
Al  2.50334475E-001  6.24725377E-001  3.75018713E-001
Al  2.47855285E-001  4.98970646E-001  4.97814404E-001
Al  3.74941933E-001  6.24058351E-001  4.97591809E-001
Al  3.74127361E-001  4.97921722E-001  6.24153438E-001
Al  2.49677429E-001  6.22834319E-001  6.25260985E-001
Al  2.50399688E-001  4.99424261E-001  7.50029088E-001
Al  3.75031015E-001  6.25671961E-001  7.49981522E-001
Al  3.72685242E-001  4.99665960E-001  8.74970068E-001
Al  2.50392485E-001  6.23238174E-001  8.77010070E-001
Al  2.47535872E-001  7.50104264E-001  -1.39005152E-003
Al  3.74981781E-001  8.72502957E-001  8.67064313E-004
Al  3.74991623E-001  7.49922532E-001  1.24811325E-001
Al  2.49910303E-001  8.75802924E-001  1.24965441E-001
Al  2.49991435E-001  7.52350697E-001  2.50379261E-001
Al  3.77459137E-001  8.72614300E-001  2.50822129E-001
Al  3.75043244E-001  7.48232378E-001  3.72721995E-001
Al  2.48923892E-001  8.74981040E-001  3.74974216E-001
Al  2.50031407E-001  7.51463975E-001  5.00222947E-001
Al  3.77460458E-001  8.75274017E-001  4.99881667E-001
Al  3.77329299E-001  7.49453298E-001  6.24904301E-001
Al  2.49511930E-001  8.75149646E-001  6.22563822E-001
Al  2.50008764E-001  7.47502095E-001  7.49981115E-001
Al  3.75017318E-001  8.74250924E-001  7.51364473E-001
Al  3.74854344E-001  7.49559347E-001  8.75389813E-001
Al  2.47804371E-001  8.76924607E-001  8.74195675E-001
Al  5.01644656E-001  -1.89745256E-005  1.43193051E-003
Al  6.27499187E-001  1.24897585E-001  -2.31092565E-003
Al  6.24503801E-001  1.10270490E-003  1.25056462E-001
Al  5.00021307E-001  1.23249415E-001  1.25719409E-001
Al  4.98402903E-001  -1.18268272E-003  2.47559149E-001
Al  6.24872716E-001  1.24819889E-001  2.52387103E-001
Al  6.24758370E-001  -1.18342901E-003  3.75043883E-001
Al  5.00526791E-001  1.25008905E-001  3.75008552E-001
Al  5.02496612E-001  2.32115564E-003  4.97984979E-001
Al  6.27265709E-001  1.24648675E-001  5.00032849E-001
Al  6.24982910E-001  2.49132109E-003  6.26665882E-001
Al  4.99271237E-001  1.24991460E-001  6.25018833E-001
Al  5.00294400E-001  -3.49013314E-005  7.47524234E-001
Al  6.24681246E-001  1.25355467E-001  7.50226357E-001
Al  6.24967062E-001  8.95643398E-005  8.75295782E-001
Al  4.99928894E-001  1.27100653E-001  8.77044661E-001
Al  4.99141512E-001  2.50081837E-001  1.56740077E-003
Al  6.25756299E-001  3.73941868E-001  -5.59444646E-004
Al  6.22520074E-001  2.50096001E-001  1.22519430E-001
Al  4.97927594E-001  3.75017585E-001  1.22508304E-001
Al  4.97548727E-001  2.49218903E-001  2.49869051E-001
Al  6.24934998E-001  3.75018591E-001  2.50732237E-001
Al  6.25119339E-001  2.48413010E-001  3.73189161E-001
Al  5.02418919E-001  3.74357576E-001  3.75797650E-001
Al  4.98866305E-001  2.50637832E-001  5.02106274E-001
Al  6.22760008E-001  3.77324812E-001  5.00191562E-001
Al  6.25023518E-001  2.48891902E-001  6.23072234E-001
Al  5.01436173E-001  3.72516315E-001  6.25111374E-001
Al  4.97618925E-001  2.50554272E-001  7.50158904E-001
Al  6.27187895E-001  3.74899045E-001  7.48098273E-001
Al  6.24643812E-001  2.49246179E-001  8.74696584E-001
Al  4.99955745E-001  3.74991529E-001  8.74981812E-001
Al  4.99927373E-001  4.99949929E-001  -5.48036018E-004
Al  6.25541641E-001  6.26632612E-001  -8.06511831E-005
Al  6.26736877E-001  5.00326344E-001  1.24868752E-001
Al  4.97500183E-001  6.27414817E-001  1.24230154E-001
Al  5.00849073E-001  5.01983577E-001  2.50374914E-001
Al  6.25111204E-001  6.23539417E-001  2.50019480E-001
Al  6.25777899E-001  5.00939640E-001  3.74126644E-001
Al  5.00334998E-001  6.27496119E-001  3.73465022E-001
Al  5.02015538E-001  5.00932052E-001  5.00102334E-001
Al  6.26928143E-001  6.25045246E-001  4.99860371E-001
Al  6.22856312E-001  5.00389127E-001  6.26162485E-001
Al  4.99585708E-001  6.24606259E-001  6.23696327E-001
Al  5.00018219E-001  5.02486554E-001  7.50018379E-001
Al  6.25019511E-001  6.25548412E-001  7.48214671E-001
Al  6.25233152E-001  4.99362476E-001  8.75009083E-001
Al  5.02059720E-001  6.25123096E-001  8.75100196E-001
Al  5.02222063E-001  7.49675268E-001  -1.92134261E-004
Al  6.22937825E-001  8.74956206E-001  1.28798327E-003
Al  6.24965603E-001  7.50222107E-001  1.24571285E-001
Al  5.00262453E-001  8.73651601E-001  1.24991535E-001
Al  4.99404275E-001  7.50017226E-001  2.49981043E-001
Al  6.26065253E-001  8.75109912E-001  2.50236879E-001
Al  6.25008371E-001  7.48761194E-001  3.76074343E-001
Al  5.00370650E-001  8.75077626E-001  3.75627437E-001
Al  4.99971550E-001  7.50029892E-001  5.00537758E-001
Al  6.25070619E-001  8.74811825E-001  4.98377051E-001
Al  6.25490377E-001  7.50008626E-001  6.25722904E-001
Al  5.00009032E-001  8.74480857E-001  6.25027915E-001
Al  4.97799175E-001  7.47759397E-001  7.52169696E-001
Al  6.25008528E-001  8.74318483E-001  7.52062168E-001
Al  6.27366462E-001  7.49960077E-001  8.72501857E-001
Al  5.00135293E-001  8.77486287E-001  8.76098067E-001
Al  7.49859722E-001  2.24093396E-003  1.98648790E-003
Al  8.74920584E-001  1.27047279E-001  3.51920609E-004
Al  8.72580906E-001  -2.44444842E-003  1.22604132E-001
Al  7.47710687E-001  1.25961466E-001  1.27186241E-001
Al  7.50966149E-001  -1.69482697E-004  2.50008701E-001
Al  8.74927811E-001  1.25034864E-001  2.50281918E-001
Al  8.77146275E-001  -2.38437981E-003  3.75966773E-001
Al  7.49645545E-001  1.23649668E-001  3.74982984E-001
Al  7.48411161E-001  4.18455753E-004  4.99714102E-001
Al  8.73272007E-001  1.23354363E-001  5.02254704E-001
Al  8.74941304E-001  7.14961272E-004  6.25375540E-001
Al  7.49735760E-001  1.24401336E-001  6.24795385E-001
Al  7.49923404E-001  1.75416771E-004  7.51999829E-001
Al  8.76036080E-001  1.24633906E-001  7.49867946E-001
Al  8.72544575E-001  -1.65363819E-003  8.74893012E-001
Al  7.49666981E-001  1.25008931E-001  8.72580154E-001
Al  7.49980550E-001  2.49964266E-001  1.11123813E-003
Al  8.73840159E-001  3.77106565E-001  -3.96766997E-004
Al  8.75199355E-001  2.50008897E-001  1.24869070E-001
Al  7.47508999E-001  3.76207388E-001  1.25092825E-001
Al  7.49957988E-001  2.49854544E-001  2.49531313E-001
Al  8.77139085E-001  3.74627092E-001  2.50038783E-001
Al  8.74649496E-001  2.49837545E-001  3.75009159E-001
Al  7.50206978E-001  3.75029512E-001  3.77326478E-001
Al  7.50043249E-001  2.49458255E-001  5.00088388E-001
Al  8.77464377E-001  3.74991210E-001  5.00211658E-001
Al  8.74541196E-001  2.49906744E-001  6.25115263E-001
Al  7.49625597E-001  3.75038009E-001  6.26296742E-001
Al  7.50054241E-001  2.51704689E-001  7.50348351E-001
Al  8.75028980E-001  3.72917624E-001  7.50201476E-001
Al  8.73768270E-001  2.51194898E-001  8.73070996E-001
Al  7.50599312E-001  3.75726970E-001  8.75186144E-001
Al  7.47662985E-001  5.02408661E-001  2.99743331E-004
Al  8.73272385E-001  6.25090388E-001  -1.23286919E-003
Al  8.72638929E-001  4.98376079E-001  1.26064523E-001
Al  7.49571023E-001  6.26695017E-001  1.23317148E-001
Al  7.48410589E-001  4.99991431E-001  2.50251737E-001
Al  8.76698349E-001  6.24981869E-001  2.49112380E-001
Al  8.74318981E-001  5.00269794E-001  3.73902289E-001
Al  7.49964423E-001  6.25107743E-001  3.77498672E-001
Al  7.50244514E-001  4.97851328E-001  4.99004596E-001
Al  8.75009404E-001  6.24850811E-001  4.99981505E-001
Al  8.77146361E-001  5.01482550E-001  6.24981876E-001
Al  7.50643185E-001  6.24233578E-001  6.24955717E-001
Al  7.48349519E-001  5.01835760E-001  7.50799324E-001
Al  8.72523929E-001  6.22511888E-001  7.48421278E-001
Al  8.75018107E-001  4.97517230E-001  8.74852554E-001
Al  7.50008488E-001  6.27113337E-001  8.75064745E-001
Al  7.50008371E-001  7.50767931E-001  -2.49968060E-003
Al  8.75018108E-001  8.74031169E-001  -1.65307937E-003
Al  8.77339868E-001  7.49761892E-001  1.26037298E-001
Al  7.47500046E-001  8.74266445E-001  1.27109375E-001
Al  7.48133808E-001  7.49716088E-001  2.48797022E-001
Al  8.73104863E-001  8.74876376E-001  2.50119700E-001
Al  8.75982527E-001  7.50052915E-001  3.75028540E-001
Al  7.49416299E-001  8.76735996E-001  3.75018182E-001
Al  7.50020168E-001  7.50418957E-001  5.00296057E-001
Al  8.75332040E-001  8.75028726E-001  4.99904711E-001
Al  8.73164804E-001  7.47854805E-001  6.25053871E-001
Al  7.50133737E-001  8.75217184E-001  6.24354956E-001
Al  7.49148237E-001  7.52497994E-001  7.49510113E-001
Al  8.75316032E-001  8.75816384E-001  7.49454319E-001
Al  8.75718530E-001  7.50053428E-001  8.75713848E-001
Al  7.51300947E-001  8.75218626E-001  8.77488617E-001
K_POINTS automatic
2 2 2 1 1 1
