&CONTROL
restart_mode = 'from_scratch',
calculation = 'scf',
outdir = '/gpfs/bb/bxp912/scratch',
pseudo_dir = '/gpfs/bb/bxp912/pseudopotentials',
prefix = '2.48000000E-001',
etot_conv_thr = 1.00000000E-007,
forc_conv_thr = 1.00000000E-007,
nstep = 200,
tprnfor = .true.,
tstress = .true.,
disk_io = 'low',
/
&SYSTEM
ibrav = 14,
celldm(1) = 3.05001797E+001,
celldm(2) = 1.00000000E+000,
celldm(3) = 1.00000000E+000,
celldm(4) = 0.00000000E+000,
celldm(5) = 0.00000000E+000,
celldm(6) = 0.00000000E+000,
nat = 256,
ntyp = 1,
ecutwfc = 35,
ecutrho = 208,
occupations = 'smearing',
smearing = 'mv',
degauss = 5.00000007E-002,
/
&ELECTRONS
diagonalization = 'david',
mixing_mode = plain,
mixing_beta = 6.99999988E-001,
conv_thr = 1.00000000E-007,
/
&IONS
ion_dynamics = 'bfgs',
/
&CELL
cell_dynamics = 'bfgs',
press = 0.00000000E+000,
cell_factor = 2.00000000E+000,
/
ATOMIC_SPECIES
Al  2.69815390E+001  Al.pbe-n-kjpaw_psl.0.1.UPF
ATOMIC_POSITIONS crystal
Al  -2.28891315E-003  2.17723386E-003  2.41995147E-003
Al  1.24982792E-001  1.25472637E-001  9.57022530E-004
Al  1.26953553E-001  2.14048382E-005  1.23709973E-001
Al  -1.81197429E-005  1.24609260E-001  1.25018159E-001
Al  2.94645844E-004  2.39983441E-003  2.51317002E-001
Al  1.26241032E-001  1.26122855E-001  2.48520371E-001
Al  1.27172659E-001  2.28681926E-003  3.72504176E-001
Al  1.19418511E-004  1.24946473E-001  3.75043068E-001
Al  -2.49732467E-003  1.08485169E-003  4.98546292E-001
Al  1.23371008E-001  1.24991567E-001  4.99930702E-001
Al  1.25058978E-001  1.85298183E-003  6.25936340E-001
Al  -2.49575673E-003  1.24990561E-001  6.24990518E-001
Al  -2.60278975E-004  -1.41827288E-004  7.49138677E-001
Al  1.25050187E-001  1.22503364E-001  7.49827873E-001
Al  1.24898658E-001  -3.75792162E-004  8.74842609E-001
Al  2.01644767E-003  1.24895669E-001  8.75167205E-001
Al  -8.91636912E-006  2.50085208E-001  6.36355363E-004
Al  1.22514550E-001  3.75164410E-001  -5.13082560E-004
Al  1.25119773E-001  2.49975133E-001  1.24991567E-001
Al  1.69987310E-004  3.74831102E-001  1.26671044E-001
Al  -2.97971876E-004  2.48828907E-001  2.49712397E-001
Al  1.22606077E-001  3.72823531E-001  2.52463988E-001
Al  1.25020270E-001  2.48237722E-001  3.74990771E-001
Al  1.42994400E-003  3.73692036E-001  3.73698020E-001
Al  -1.88307914E-003  2.50225854E-001  4.99899709E-001
Al  1.25315275E-001  3.75037344E-001  4.97601489E-001
Al  1.27361139E-001  2.50602433E-001  6.24990845E-001
Al  -1.15417772E-003  3.75650485E-001  6.24592918E-001
Al  2.09940398E-004  2.50053412E-001  7.48463597E-001
Al  1.24336704E-001  3.73228147E-001  7.49991424E-001
Al  1.24004456E-001  2.51772144E-001  8.74894313E-001
Al  -9.09362571E-006  3.74388907E-001  8.76462976E-001
Al  -3.92703337E-005  5.00018260E-001  1.35172799E-004
Al  1.27376165E-001  6.25250429E-001  -2.24104481E-003
Al  1.23423688E-001  4.97560094E-001  1.26058472E-001
Al  3.60432062E-005  6.25123715E-001  1.25008643E-001
Al  1.08643399E-003  5.00518217E-001  2.49649040E-001
Al  1.24960494E-001  6.22500337E-001  2.50092462E-001
Al  1.23167013E-001  4.97634785E-001  3.74964123E-001
Al  2.29038246E-003  6.26925753E-001  3.74981054E-001
Al  -1.82068480E-005  5.02111809E-001  5.02492408E-001
Al  1.22502898E-001  6.23214026E-001  4.99677850E-001
Al  1.27349124E-001  5.00117872E-001  6.25174013E-001
Al  -9.69452480E-005  6.27454079E-001  6.25032559E-001
Al  2.48079608E-004  5.00079598E-001  7.51930826E-001
Al  1.25682374E-001  6.25102051E-001  7.48360410E-001
Al  1.26233894E-001  4.97520418E-001  8.75102919E-001
Al  2.46158029E-003  6.25228424E-001  8.73906016E-001
Al  -8.28234187E-004  7.49981680E-001  5.40409859E-004
Al  1.24911476E-001  8.74981863E-001  4.41827349E-005
Al  1.27363448E-001  7.49971441E-001  1.26573891E-001
Al  1.91515926E-003  8.77217345E-001  1.23947513E-001
Al  -5.37620535E-004  7.51771620E-001  2.52471536E-001
Al  1.24573080E-001  8.75080215E-001  2.51087988E-001
Al  1.25652418E-001  7.51616394E-001  3.72567779E-001
Al  -4.03534556E-004  8.75925571E-001  3.72505881E-001
Al  -8.51983287E-005  7.50264513E-001  5.02481345E-001
Al  1.25337261E-001  8.74991506E-001  5.00021041E-001
Al  1.27084024E-001  7.49953982E-001  6.25353334E-001
Al  2.88829692E-005  8.74279008E-001  6.22732861E-001
Al  1.70899591E-003  7.47596817E-001  7.48711772E-001
Al  1.25052636E-001  8.77374634E-001  7.50023305E-001
Al  1.25185364E-001  7.50008847E-001  8.75888754E-001
Al  -3.69360627E-004  8.75070452E-001  8.75018603E-001
Al  2.49097840E-001  -1.84771955E-005  -7.27099773E-004
Al  3.74954275E-001  1.22528048E-001  1.18113462E-004
Al  3.75654320E-001  -2.47113851E-003  1.22676857E-001
Al  2.50239445E-001  1.25072048E-001  1.26518057E-001
Al  2.49833345E-001  -6.83886808E-005  2.50033941E-001
Al  3.74371781E-001  1.24981073E-001  2.47955195E-001
Al  3.73033118E-001  2.49996271E-003  3.77182222E-001
Al  2.51386703E-001  1.25018110E-001  3.75256004E-001
Al  2.50100070E-001  3.47790892E-004  4.97516450E-001
Al  3.74981892E-001  1.25044418E-001  4.99142821E-001
Al  3.73251569E-001  -8.03757482E-004  6.22614546E-001
Al  2.49562928E-001  1.27421279E-001  6.24932433E-001
Al  2.50097973E-001  -3.82282058E-004  7.49562713E-001
Al  3.75079798E-001  1.22681760E-001  7.50343264E-001
Al  3.76164411E-001  -7.12477355E-004  8.72988703E-001
Al  2.52360582E-001  1.26828428E-001  8.75465802E-001
Al  2.47870224E-001  2.47952374E-001  -1.83082665E-005
Al  3.73609435E-001  3.75930906E-001  6.86659208E-005
Al  3.73530851E-001  2.51669241E-001  1.26899897E-001
Al  2.52451205E-001  3.73259707E-001  1.24800647E-001
Al  2.52397256E-001  2.47833511E-001  2.50009000E-001
Al  3.73224269E-001  3.76456665E-001  2.50018139E-001
Al  3.75335246E-001  2.50052582E-001  3.75225972E-001
Al  2.50154103E-001  3.75020077E-001  3.73356095E-001
Al  2.48059554E-001  2.49538713E-001  4.99199418E-001
Al  3.76703846E-001  3.75569904E-001  5.02436927E-001
Al  3.73715349E-001  2.49723468E-001  6.25051873E-001
Al  2.49581602E-001  3.75631220E-001  6.24817176E-001
Al  2.49982436E-001  2.47712805E-001  7.50851476E-001
Al  3.74895158E-001  3.77389608E-001  7.50951296E-001
Al  3.75018260E-001  2.49901869E-001  8.77198325E-001
Al  2.50756157E-001  3.73687380E-001  8.72695066E-001
Al  2.50496721E-001  5.00020587E-001  -4.63199354E-005
Al  3.74615963E-001  6.27407526E-001  -3.68143833E-004
Al  3.75018337E-001  5.00346469E-001  1.24070100E-001
Al  2.50008371E-001  6.25019302E-001  1.25008665E-001
Al  2.52017972E-001  5.00009636E-001  2.50316479E-001
Al  3.77261238E-001  6.24991500E-001  2.49911506E-001
Al  3.75230602E-001  4.99991394E-001  3.73435144E-001
Al  2.47896871E-001  6.24919145E-001  3.75275328E-001
Al  2.50199224E-001  5.00164737E-001  4.99915331E-001
Al  3.73246483E-001  6.24963937E-001  5.02018641E-001
Al  3.75428528E-001  4.99773392E-001  6.24980782E-001
Al  2.49435748E-001  6.24551860E-001  6.24021149E-001
Al  2.50018181E-001  4.98616112E-001  7.50224333E-001
Al  3.77469582E-001  6.23523588E-001  7.48720131E-001
Al  3.76343951E-001  5.00008527E-001  8.76778787E-001
Al  2.49979949E-001  6.23626959E-001  8.73740722E-001
Al  2.50611228E-001  7.50108663E-001  -4.33998965E-004
Al  3.76243884E-001  8.77494979E-001  -1.28331146E-003
Al  3.75856575E-001  7.49949521E-001  1.27497545E-001
Al  2.52370503E-001  8.74941327E-001  1.23402058E-001
Al  2.49009618E-001  7.49646478E-001  2.49980563E-001
Al  3.75056510E-001  8.73504051E-001  2.47853931E-001
Al  3.74287798E-001  7.49981643E-001  3.75518521E-001
Al  2.48984179E-001  8.72577209E-001  3.75050873E-001
Al  2.50072997E-001  7.51663464E-001  5.00093357E-001
Al  3.74991009E-001  8.72839753E-001  5.00103492E-001
Al  3.75380892E-001  7.49455408E-001  6.24021565E-001
Al  2.50050308E-001  8.74146401E-001  6.23901814E-001
Al  2.51504326E-001  7.50018205E-001  7.48286701E-001
Al  3.75508868E-001  8.74889934E-001  7.52346118E-001
Al  3.73440105E-001  7.48493272E-001  8.77483724E-001
Al  2.52054265E-001  8.77374216E-001  8.76939274E-001
Al  4.97694749E-001  8.67490439E-004  7.15239377E-004
Al  6.25440621E-001  1.24991523E-001  -2.49899854E-003
Al  6.25075712E-001  1.69228020E-003  1.25028207E-001
Al  5.01266381E-001  1.24965621E-001  1.26778000E-001
Al  5.00008536E-001  -2.26888300E-003  2.50114584E-001
Al  6.24872090E-001  1.26663664E-001  2.50018699E-001
Al  6.27446924E-001  2.10445890E-003  3.73007204E-001
Al  4.98235881E-001  1.26106056E-001  3.75403845E-001
Al  5.01079185E-001  -2.20832505E-003  4.97563761E-001
Al  6.24798364E-001  1.25903181E-001  4.99981845E-001
Al  6.25492952E-001  8.40321610E-004  6.24673824E-001
Al  4.99910021E-001  1.26996685E-001  6.27109909E-001
Al  4.99920178E-001  1.03442441E-003  7.50032097E-001
Al  6.24632241E-001  1.25109574E-001  7.50018441E-001
Al  6.22969021E-001  -1.00122114E-003  8.77040517E-001
Al  4.99788170E-001  1.23333051E-001  8.74764300E-001
Al  4.97832871E-001  2.52497314E-001  -1.68679897E-003
Al  6.27153758E-001  3.74722140E-001  3.21273998E-004
Al  6.22516324E-001  2.50224880E-001  1.25043120E-001
Al  5.00209486E-001  3.74981681E-001  1.27277322E-001
Al  4.99832209E-001  2.49008311E-001  2.48417194E-001
Al  6.24991410E-001  3.74283921E-001  2.49956185E-001
Al  6.24286697E-001  2.49991247E-001  3.75069989E-001
Al  5.01381577E-001  3.75790017E-001  3.74980774E-001
Al  4.97876055E-001  2.49626278E-001  4.99981861E-001
Al  6.24991347E-001  3.74940925E-001  5.00338107E-001
Al  6.22861877E-001  2.48899643E-001  6.24953515E-001
Al  4.98132803E-001  3.75448126E-001  6.24651791E-001
Al  5.00018295E-001  2.49788030E-001  7.52463538E-001
Al  6.25167584E-001  3.72587515E-001  7.51046876E-001
Al  6.24800529E-001  2.49991629E-001  8.76448649E-001
Al  4.99491498E-001  3.75020263E-001  8.73919439E-001
Al  4.99964279E-001  4.99990780E-001  4.66033725E-004
Al  6.26801484E-001  6.25223459E-001  8.61407104E-004
Al  6.26719999E-001  5.02323909E-001  1.27466776E-001
Al  5.01062416E-001  6.25263666E-001  1.24232526E-001
Al  5.01902913E-001  4.98533855E-001  2.47725853E-001
Al  6.24981846E-001  6.26837223E-001  2.49031292E-001
Al  6.24981339E-001  4.99656226E-001  3.74590305E-001
Al  5.02461700E-001  6.26850617E-001  3.75037372E-001
Al  5.02015110E-001  4.98448321E-001  4.97500676E-001
Al  6.25121902E-001  6.24946296E-001  4.99426662E-001
Al  6.26586578E-001  4.99990471E-001  6.25119399E-001
Al  5.00074068E-001  6.26688052E-001  6.24772247E-001
Al  4.99612919E-001  4.99991613E-001  7.50008895E-001
Al  6.25079436E-001  6.25177512E-001  7.49835269E-001
Al  6.24251700E-001  5.00531734E-001  8.72873964E-001
Al  5.01776419E-001  6.24915584E-001  8.72500012E-001
Al  5.00018568E-001  7.52267321E-001  1.30627117E-003
Al  6.24600511E-001  8.77380524E-001  2.27787360E-004
Al  6.25123252E-001  7.50111175E-001  1.24911418E-001
Al  4.99314741E-001  8.72555507E-001  1.24078995E-001
Al  5.02491010E-001  7.50252292E-001  2.49590846E-001
Al  6.25445229E-001  8.75369162E-001  2.47925008E-001
Al  6.25399710E-001  7.48322248E-001  3.74981429E-001
Al  4.99749296E-001  8.75921181E-001  3.75018274E-001
Al  4.99912501E-001  7.52271256E-001  4.99950318E-001
Al  6.24991184E-001  8.74982725E-001  4.97674637E-001
Al  6.22891447E-001  7.52133298E-001  6.24957849E-001
Al  4.97715402E-001  8.75095783E-001  6.25008374E-001
Al  5.00644012E-001  7.50117251E-001  7.50008406E-001
Al  6.24981033E-001  8.74280201E-001  7.49981322E-001
Al  6.27144604E-001  7.47515251E-001  8.74903560E-001
Al  4.97995781E-001  8.75462027E-001  8.75020161E-001
Al  7.50118094E-001  -1.74564299E-003  -2.62834912E-004
Al  8.74184861E-001  1.23531070E-001  1.81102240E-003
Al  8.77413356E-001  -1.49340467E-003  1.22968701E-001
Al  7.50145128E-001  1.25060257E-001  1.26381467E-001
Al  7.52058719E-001  1.75591084E-003  2.49794328E-001
Al  8.74814732E-001  1.23271596E-001  2.48864804E-001
Al  8.74570671E-001  -2.02328899E-003  3.73153763E-001
Al  7.50018596E-001  1.24285381E-001  3.76037064E-001
Al  7.50245787E-001  8.90877784E-006  5.00009677E-001
Al  8.75230002E-001  1.24575214E-001  5.00497969E-001
Al  8.75073394E-001  -1.66222176E-003  6.24211037E-001
Al  7.52467410E-001  1.23035864E-001  6.23998789E-001
Al  7.52469595E-001  -4.97607266E-005  7.50019137E-001
Al  8.74054886E-001  1.23902837E-001  7.52415419E-001
Al  8.76321355E-001  2.26794015E-003  8.76771065E-001
Al  7.50008879E-001  1.25156786E-001  8.73642741E-001
Al  7.50141246E-001  2.50115639E-001  1.84391045E-003
Al  8.75008476E-001  3.72595282E-001  -4.65185978E-004
Al  8.75056553E-001  2.50070112E-001  1.24981881E-001
Al  7.52071541E-001  3.75511287E-001  1.26789808E-001
Al  7.51305280E-001  2.50125580E-001  2.47512487E-001
Al  8.72697233E-001  3.72529787E-001  2.50018283E-001
Al  8.75008470E-001  2.50081999E-001  3.72622798E-001
Al  7.50141591E-001  3.73283209E-001  3.75812497E-001
Al  7.52007099E-001  2.47507912E-001  5.00008737E-001
Al  8.75138411E-001  3.72592422E-001  5.00075248E-001
Al  8.75549230E-001  2.49990741E-001  6.25149377E-001
Al  7.49971158E-001  3.75008538E-001  6.23148311E-001
Al  7.49981886E-001  2.51268333E-001  7.49883560E-001
Al  8.76323060E-001  3.74105881E-001  7.50017155E-001
Al  8.75093763E-001  2.51414323E-001  8.74120383E-001
Al  7.52322891E-001  3.75580913E-001  8.74889450E-001
Al  7.51702274E-001  4.99961923E-001  -8.81722187E-005
Al  8.75842995E-001  6.24904118E-001  2.49246546E-003
Al  8.73380871E-001  5.02283203E-001  1.24241439E-001
Al  7.51973658E-001  6.22522244E-001  1.24927927E-001
Al  7.49822853E-001  4.98696602E-001  2.48075203E-001
Al  8.72616485E-001  6.25184723E-001  2.49951244E-001
Al  8.74903990E-001  5.00077258E-001  3.76770676E-001
Al  7.50008532E-001  6.23592200E-001  3.73986630E-001
Al  7.50079482E-001  4.98392725E-001  5.00427298E-001
Al  8.75046196E-001  6.25794183E-001  5.01472331E-001
Al  8.74895741E-001  4.97800357E-001  6.25455630E-001
Al  7.48720222E-001  6.24751945E-001  6.25041689E-001
Al  7.49980637E-001  4.98673912E-001  7.49947529E-001
Al  8.77456274E-001  6.25598018E-001  7.49408077E-001
Al  8.76196311E-001  4.99057457E-001  8.72557381E-001
Al  7.50020034E-001  6.26088421E-001  8.77493085E-001
Al  7.51232527E-001  7.47849066E-001  -1.66070314E-004
Al  8.74887732E-001  8.77410571E-001  -4.34240176E-004
Al  8.74708582E-001  7.50185413E-001  1.26978268E-001
Al  7.52432638E-001  8.74913337E-001  1.22754889E-001
Al  7.50008720E-001  7.48923543E-001  2.47658474E-001
Al  8.75018266E-001  8.75041660E-001  2.52142541E-001
Al  8.74320339E-001  7.48559751E-001  3.75018315E-001
Al  7.50554548E-001  8.72901884E-001  3.75217713E-001
Al  7.50018706E-001  7.51860206E-001  4.97822598E-001
Al  8.72500005E-001  8.75047055E-001  4.97507427E-001
Al  8.74085802E-001  7.47718597E-001  6.23106217E-001
Al  7.50009285E-001  8.77202609E-001  6.25018388E-001
Al  7.51021415E-001  7.49979706E-001  7.48165744E-001
Al  8.75043273E-001  8.75189005E-001  7.50745343E-001
Al  8.77078122E-001  7.48935349E-001  8.76732236E-001
Al  7.48276296E-001  8.73027693E-001  8.73044566E-001
K_POINTS automatic
2 2 2 1 1 1
