&CONTROL
restart_mode = 'from_scratch',
calculation = 'scf',
outdir = '/gpfs/bb/bxp912/scratch',
pseudo_dir = '/gpfs/bb/bxp912/pseudopotentials',
prefix = '2.48000000E-001',
etot_conv_thr = 1.00000000E-007,
forc_conv_thr = 1.00000000E-007,
nstep = 200,
tprnfor = .true.,
tstress = .true.,
disk_io = 'low',
/
&SYSTEM
ibrav = 14,
celldm(1) = 3.05001797E+001,
celldm(2) = 1.00000000E+000,
celldm(3) = 1.00000000E+000,
celldm(4) = 0.00000000E+000,
celldm(5) = 0.00000000E+000,
celldm(6) = 0.00000000E+000,
nat = 256,
ntyp = 1,
ecutwfc = 35,
ecutrho = 208,
occupations = 'smearing',
smearing = 'mv',
degauss = 5.00000007E-002,
/
&ELECTRONS
diagonalization = 'david',
mixing_mode = plain,
mixing_beta = 6.99999988E-001,
conv_thr = 1.00000000E-007,
/
&IONS
ion_dynamics = 'bfgs',
/
&CELL
cell_dynamics = 'bfgs',
press = 0.00000000E+000,
cell_factor = 2.00000000E+000,
/
ATOMIC_SPECIES
Al  2.69815390E+001  Al.pbe-n-kjpaw_psl.0.1.UPF
ATOMIC_POSITIONS crystal
Al  -1.59006132E-004  -2.45317089E-003  -8.42243193E-006
Al  1.22680306E-001  1.26478192E-001  -2.50552179E-004
Al  1.27307735E-001  -1.57475061E-003  1.23873372E-001
Al  4.37947302E-004  1.25135936E-001  1.26642489E-001
Al  1.37322684E-004  -1.72380348E-003  2.49951981E-001
Al  1.23388446E-001  1.23532891E-001  2.49541210E-001
Al  1.24979151E-001  4.21511085E-004  3.74980619E-001
Al  2.18070692E-003  1.24319159E-001  3.75540934E-001
Al  -1.81843258E-005  -1.97519156E-005  5.00216455E-001
Al  1.25018470E-001  1.27053027E-001  4.99654532E-001
Al  1.24833640E-001  3.19278023E-005  6.25120448E-001
Al  2.53176381E-004  1.27165141E-001  6.25093437E-001
Al  -7.68277057E-005  -6.90573778E-005  7.50009756E-001
Al  1.25033607E-001  1.22500069E-001  7.50205286E-001
Al  1.25027079E-001  -2.22786343E-003  8.75162214E-001
Al  -4.24408296E-004  1.24324782E-001  8.74754969E-001
Al  9.90047730E-004  2.50126766E-001  7.54245462E-004
Al  1.24980257E-001  3.77241805E-001  -8.35427558E-005
Al  1.23674053E-001  2.50459544E-001  1.24483416E-001
Al  1.30126267E-003  3.74847887E-001  1.25805882E-001
Al  3.00055099E-004  2.47580093E-001  2.48655139E-001
Al  1.24991591E-001  3.75256953E-001  2.49866085E-001
Al  1.25018474E-001  2.47529362E-001  3.77461622E-001
Al  -9.01513822E-006  3.75367633E-001  3.77106622E-001
Al  -1.60932676E-003  2.50039623E-001  4.97893633E-001
Al  1.24758527E-001  3.74967285E-001  5.00897396E-001
Al  1.27371493E-001  2.51690112E-001  6.25066267E-001
Al  2.26639798E-003  3.75075420E-001  6.22503198E-001
Al  6.42594754E-005  2.51693119E-001  7.52452102E-001
Al  1.24166032E-001  3.72971314E-001  7.49419292E-001
Al  1.22659479E-001  2.50326212E-001  8.73554857E-001
Al  2.27244150E-003  3.73474027E-001  8.74744666E-001
Al  -2.45507254E-003  5.02395212E-001  -8.95117859E-005
Al  1.25360504E-001  6.24293047E-001  -1.70786453E-003
Al  1.24954987E-001  5.00054702E-001  1.26289946E-001
Al  2.47002551E-003  6.22507314E-001  1.25009496E-001
Al  -4.36031035E-004  4.99707902E-001  2.51342962E-001
Al  1.26868175E-001  6.24025983E-001  2.47573493E-001
Al  1.23912466E-001  4.99892012E-001  3.73823030E-001
Al  -1.73610307E-003  6.25549381E-001  3.75451546E-001
Al  -1.89957645E-005  4.98279241E-001  5.00171745E-001
Al  1.22842668E-001  6.26562933E-001  4.97548472E-001
Al  1.22519162E-001  5.00008373E-001  6.24716504E-001
Al  2.53798691E-005  6.25036458E-001  6.24967569E-001
Al  1.94354908E-003  5.02033562E-001  7.51256224E-001
Al  1.26447582E-001  6.23805203E-001  7.52489700E-001
Al  1.25688858E-001  5.00370971E-001  8.76549454E-001
Al  2.29195461E-003  6.22504912E-001  8.75127843E-001
Al  -2.44891456E-003  7.51805822E-001  -6.66413470E-004
Al  1.23827928E-001  8.74296807E-001  -2.38229550E-003
Al  1.24981863E-001  7.50008450E-001  1.25067970E-001
Al  -1.93592872E-004  8.76389461E-001  1.24990913E-001
Al  6.68064918E-004  7.48059576E-001  2.47713563E-001
Al  1.25032405E-001  8.75482506E-001  2.51435038E-001
Al  1.25065017E-001  7.49857904E-001  3.72557429E-001
Al  -1.04040189E-004  8.72546757E-001  3.77301923E-001
Al  1.40912423E-004  7.49823863E-001  5.00218818E-001
Al  1.26708584E-001  8.76009519E-001  5.00052297E-001
Al  1.24964862E-001  7.50018242E-001  6.25117751E-001
Al  1.37674980E-004  8.72783872E-001  6.25230904E-001
Al  -1.17500291E-003  7.49981892E-001  7.52251388E-001
Al  1.27409268E-001  8.74991502E-001  7.50265757E-001
Al  1.25276072E-001  7.50133224E-001  8.74929099E-001
Al  -1.82689548E-004  8.77369882E-001  8.76987439E-001
Al  2.52462533E-001  -2.31398886E-004  2.84516269E-005
Al  3.75129374E-001  1.25225538E-001  -6.96373346E-005
Al  3.75667268E-001  1.99230553E-003  1.25018314E-001
Al  2.48930377E-001  1.25202392E-001  1.24528678E-001
Al  2.50130336E-001  4.03446944E-005  2.50138070E-001
Al  3.75020131E-001  1.23311596E-001  2.49968151E-001
Al  3.75018191E-001  2.89882493E-005  3.74979736E-001
Al  2.52170122E-001  1.22588520E-001  3.72788518E-001
Al  2.49979811E-001  1.75960121E-003  4.97506496E-001
Al  3.74887567E-001  1.25667045E-001  4.99918667E-001
Al  3.75120170E-001  1.86038181E-003  6.24981690E-001
Al  2.47867381E-001  1.25446141E-001  6.25096419E-001
Al  2.49745814E-001  -2.40595755E-003  7.50276016E-001
Al  3.75189602E-001  1.26329906E-001  7.48509481E-001
Al  3.74786034E-001  2.48757751E-003  8.74676398E-001
Al  2.51379363E-001  1.26759818E-001  8.73668832E-001
Al  2.50018158E-001  2.50368483E-001  1.96962098E-003
Al  3.73529120E-001  3.74757860E-001  -2.04202097E-003
Al  3.73036124E-001  2.52458852E-001  1.24937905E-001
Al  2.49179242E-001  3.75020709E-001  1.24948940E-001
Al  2.50527848E-001  2.49871218E-001  2.48410343E-001
Al  3.73342812E-001  3.72588465E-001  2.51047798E-001
Al  3.76174380E-001  2.49645047E-001  3.75763432E-001
Al  2.49256164E-001  3.74982367E-001  3.75019344E-001
Al  2.49753066E-001  2.47548129E-001  4.98215193E-001
Al  3.74675131E-001  3.75178451E-001  5.00018770E-001
Al  3.72589911E-001  2.48532518E-001  6.22948238E-001
Al  2.50349042E-001  3.77434904E-001  6.25229030E-001
Al  2.52185524E-001  2.50042890E-001  7.50076694E-001
Al  3.76053473E-001  3.75968252E-001  7.48017941E-001
Al  3.75018881E-001  2.52499892E-001  8.74802369E-001
Al  2.49503183E-001  3.75018633E-001  8.76709442E-001
Al  2.51206737E-001  5.02136839E-001  2.44555888E-005
Al  3.76771446E-001  6.25018272E-001  1.97102215E-004
Al  3.73464418E-001  5.00038045E-001  1.22908687E-001
Al  2.49749217E-001  6.27308381E-001  1.24940523E-001
Al  2.49563502E-001  5.00045543E-001  2.48971061E-001
Al  3.75019403E-001  6.25434543E-001  2.49366491E-001
Al  3.76257724E-001  4.99959331E-001  3.75009770E-001
Al  2.49669573E-001  6.24967800E-001  3.75109652E-001
Al  2.50105537E-001  4.98692947E-001  5.01169911E-001
Al  3.76089928E-001  6.26608801E-001  5.00161890E-001
Al  3.74770453E-001  4.98525064E-001  6.22500964E-001
Al  2.50160745E-001  6.25310277E-001  6.24991023E-001
Al  2.51689656E-001  4.99619727E-001  7.51599337E-001
Al  3.75716228E-001  6.26546254E-001  7.49390142E-001
Al  3.74990322E-001  4.99864449E-001  8.77455999E-001
Al  2.50125955E-001  6.24577061E-001  8.75061087E-001
Al  2.51089756E-001  7.51810276E-001  4.45559996E-005
Al  3.74991586E-001  8.73803303E-001  7.13581122E-005
Al  3.74978038E-001  7.49916623E-001  1.24980831E-001
Al  2.50026481E-001  8.72543650E-001  1.24887152E-001
Al  2.50925388E-001  7.49727092E-001  2.52284543E-001
Al  3.75054496E-001  8.77477644E-001  2.49968623E-001
Al  3.74596360E-001  7.51822785E-001  3.74730432E-001
Al  2.50903318E-001  8.74947684E-001  3.72532770E-001
Al  2.49978976E-001  7.50267641E-001  5.00160648E-001
Al  3.77301573E-001  8.75050592E-001  5.02170985E-001
Al  3.75223225E-001  7.51658877E-001  6.23667635E-001
Al  2.48151085E-001  8.75189246E-001  6.24970944E-001
Al  2.50403378E-001  7.50499641E-001  7.50040536E-001
Al  3.72670132E-001  8.75292048E-001  7.48661894E-001
Al  3.75435183E-001  7.50038748E-001  8.74314898E-001
Al  2.48754383E-001  8.75018386E-001  8.75018135E-001
Al  5.01540073E-001  1.28487193E-003  1.74993414E-005
Al  6.24306241E-001  1.23258450E-001  2.43119606E-004
Al  6.24981545E-001  -8.32324264E-005  1.24078100E-001
Al  5.02480572E-001  1.24958193E-001  1.23795018E-001
Al  4.99859900E-001  -1.19237649E-003  2.50285914E-001
Al  6.25017599E-001  1.25052769E-001  2.48865689E-001
Al  6.24711178E-001  6.09034963E-005  3.72759320E-001
Al  5.01942510E-001  1.27363595E-001  3.74872816E-001
Al  5.00526302E-001  1.01816864E-004  4.99882746E-001
Al  6.25061573E-001  1.22710004E-001  5.00826135E-001
Al  6.22844745E-001  5.43916672E-004  6.24506616E-001
Al  5.01418772E-001  1.27352825E-001  6.24979177E-001
Al  5.01509647E-001  -1.71477068E-003  7.48706241E-001
Al  6.25153966E-001  1.25137141E-001  7.49498839E-001
Al  6.25629586E-001  -1.77027792E-003  8.75084878E-001
Al  5.01557559E-001  1.25018551E-001  8.76018775E-001
Al  4.99903475E-001  2.51116365E-001  -1.49489084E-003
Al  6.22527428E-001  3.75213590E-001  -2.31172461E-004
Al  6.25617654E-001  2.50019313E-001  1.24981619E-001
Al  4.99672801E-001  3.74847187E-001  1.25133694E-001
Al  4.99724182E-001  2.47747892E-001  2.47854726E-001
Al  6.25041821E-001  3.74496763E-001  2.52471046E-001
Al  6.24802040E-001  2.48833275E-001  3.74917345E-001
Al  4.99981866E-001  3.72599113E-001  3.74880158E-001
Al  5.00946885E-001  2.50349165E-001  4.99580108E-001
Al  6.25180533E-001  3.76364564E-001  5.01097490E-001
Al  6.24162792E-001  2.49950885E-001  6.24980237E-001
Al  5.02496849E-001  3.74981820E-001  6.25067669E-001
Al  5.01725303E-001  2.50019682E-001  7.50097555E-001
Al  6.24921174E-001  3.77426105E-001  7.50784443E-001
Al  6.26403391E-001  2.49974570E-001  8.72766201E-001
Al  4.99264533E-001  3.73622947E-001  8.75129586E-001
Al  5.00025663E-001  5.00524707E-001  -2.34500327E-003
Al  6.26914160E-001  6.24850237E-001  -2.33810288E-003
Al  6.27442392E-001  4.99991438E-001  1.25008474E-001
Al  5.00887705E-001  6.24883287E-001  1.25047063E-001
Al  4.99978954E-001  5.02306132E-001  2.49875459E-001
Al  6.27335776E-001  6.25065011E-001  2.49709236E-001
Al  6.27452998E-001  4.98978301E-001  3.77284003E-001
Al  4.99635485E-001  6.26692827E-001  3.72850811E-001
Al  4.99601001E-001  5.01389004E-001  5.02398208E-001
Al  6.25037632E-001  6.25056656E-001  5.00197502E-001
Al  6.27106644E-001  4.98071477E-001  6.27453374E-001
Al  5.02438059E-001  6.27406968E-001  6.24883230E-001
Al  4.99899719E-001  4.98477403E-001  7.48075856E-001
Al  6.23869589E-001  6.25260143E-001  7.48099294E-001
Al  6.22514396E-001  5.01723139E-001  8.74366330E-001
Al  5.00180486E-001  6.24898662E-001  8.77477630E-001
Al  5.00115438E-001  7.52374296E-001  -2.37306562E-003
Al  6.25029108E-001  8.74746752E-001  -8.88737128E-005
Al  6.25667392E-001  7.49212507E-001  1.23031699E-001
Al  5.00018158E-001  8.73272871E-001  1.27157670E-001
Al  5.00018233E-001  7.52220491E-001  2.51089747E-001
Al  6.23267505E-001  8.76058349E-001  2.52226785E-001
Al  6.23913681E-001  7.47519225E-001  3.77494051E-001
Al  4.99281665E-001  8.76119479E-001  3.73903592E-001
Al  5.01314969E-001  7.47819865E-001  5.00600504E-001
Al  6.27230612E-001  8.75391858E-001  4.98935537E-001
Al  6.27472126E-001  7.49328895E-001  6.27422825E-001
Al  4.98840651E-001  8.74786174E-001  6.24082820E-001
Al  4.99915296E-001  7.49308731E-001  7.50217108E-001
Al  6.26342937E-001  8.75104227E-001  7.49990910E-001
Al  6.23726274E-001  7.48975189E-001  8.77092152E-001
Al  4.99849454E-001  8.75571399E-001  8.72676345E-001
Al  7.49981889E-001  -8.22496337E-005  1.19517333E-004
Al  8.73999848E-001  1.24913192E-001  2.04055149E-003
Al  8.74719539E-001  -4.35699009E-004  1.24947088E-001
Al  7.49571842E-001  1.24399577E-001  1.24491604E-001
Al  7.47557402E-001  -3.80909263E-004  2.47623996E-001
Al  8.74284145E-001  1.24745842E-001  2.50021257E-001
Al  8.74596371E-001  -2.40652089E-003  3.76924916E-001
Al  7.50018645E-001  1.25077681E-001  3.74908522E-001
Al  7.51791798E-001  1.81582139E-003  5.02214755E-001
Al  8.72665648E-001  1.23181296E-001  4.98104383E-001
Al  8.74897180E-001  3.54105537E-005  6.24981892E-001
Al  7.49435127E-001  1.26757037E-001  6.26778526E-001
Al  7.49365454E-001  -1.51954021E-003  7.50026497E-001
Al  8.76862662E-001  1.22617398E-001  7.50048512E-001
Al  8.75009271E-001  -1.99911855E-003  8.74817114E-001
Al  7.47505242E-001  1.27316922E-001  8.73384885E-001
Al  7.50645560E-001  2.48120353E-001  -1.57167264E-004
Al  8.76730268E-001  3.72504974E-001  2.42277131E-003
Al  8.74974641E-001  2.49764515E-001  1.25021086E-001
Al  7.47791039E-001  3.75059618E-001  1.25196809E-001
Al  7.50928139E-001  2.49981591E-001  2.49991584E-001
Al  8.75869723E-001  3.72653439E-001  2.50510881E-001
Al  8.72540419E-001  2.51572505E-001  3.74911616E-001
Al  7.50165566E-001  3.76131009E-001  3.77476092E-001
Al  7.49685685E-001  2.49991033E-001  5.00034646E-001
Al  8.75487726E-001  3.72500409E-001  5.00018402E-001
Al  8.76936777E-001  2.47732831E-001  6.24956323E-001
Al  7.50018222E-001  3.74894871E-001  6.26245002E-001
Al  7.50491011E-001  2.50354791E-001  7.48164866E-001
Al  8.74462426E-001  3.77238493E-001  7.50053648E-001
Al  8.74845887E-001  2.47695477E-001  8.75061404E-001
Al  7.51766106E-001  3.75155876E-001  8.74782827E-001
Al  7.51340407E-001  5.01415036E-001  3.51338689E-004
Al  8.76971188E-001  6.25018673E-001  1.72334716E-003
Al  8.75182624E-001  5.02477547E-001  1.25663177E-001
Al  7.51287088E-001  6.22500296E-001  1.24182246E-001
Al  7.49926782E-001  4.99301465E-001  2.49210738E-001
Al  8.72946080E-001  6.22670113E-001  2.50215740E-001
Al  8.77470442E-001  4.99427687E-001  3.75453687E-001
Al  7.49990925E-001  6.26797119E-001  3.72869490E-001
Al  7.51180604E-001  5.00058637E-001  4.99981882E-001
Al  8.75449270E-001  6.24022246E-001  5.00009207E-001
Al  8.77494314E-001  4.99382004E-001  6.24973751E-001
Al  7.51721350E-001  6.27429182E-001  6.23347991E-001
Al  7.50008619E-001  4.98292459E-001  7.47903901E-001
Al  8.75876958E-001  6.25087161E-001  7.49708889E-001
Al  8.74659116E-001  5.00498031E-001  8.75008546E-001
Al  7.48290541E-001  6.24981889E-001  8.77372885E-001
Al  7.47827071E-001  7.51413183E-001  2.19025646E-003
Al  8.77198707E-001  8.74865419E-001  -2.88770302E-005
Al  8.74089425E-001  7.49682331E-001  1.24801757E-001
Al  7.50043127E-001  8.76154643E-001  1.23675456E-001
Al  7.48551739E-001  7.47758465E-001  2.49901807E-001
Al  8.75402517E-001  8.74354912E-001  2.50939999E-001
Al  8.73504703E-001  7.49169354E-001  3.74695802E-001
Al  7.50370069E-001  8.74979089E-001  3.72500916E-001
Al  7.49352479E-001  7.48280634E-001  4.99480757E-001
Al  8.76671092E-001  8.74442038E-001  5.00049226E-001
Al  8.74981086E-001  7.49607030E-001  6.25843425E-001
Al  7.50027992E-001  8.76980209E-001  6.22528956E-001
Al  7.48061384E-001  7.47643762E-001  7.50033448E-001
Al  8.77420085E-001  8.76800047E-001  7.48114123E-001
Al  8.75414900E-001  7.52001837E-001  8.75392693E-001
Al  7.52499343E-001  8.74489710E-001  8.74979736E-001
K_POINTS automatic
2 2 2 1 1 1
