&CONTROL
restart_mode = 'from_scratch',
calculation = 'scf',
outdir = '/gpfs/bb/bxp912/scratch',
pseudo_dir = '/gpfs/bb/bxp912/pseudopotentials',
prefix = '2.48000000E-001',
etot_conv_thr = 1.00000000E-007,
forc_conv_thr = 1.00000000E-007,
nstep = 200,
tprnfor = .true.,
tstress = .true.,
disk_io = 'low',
/
&SYSTEM
ibrav = 14,
celldm(1) = 3.05001797E+001,
celldm(2) = 1.00000000E+000,
celldm(3) = 1.00000000E+000,
celldm(4) = 0.00000000E+000,
celldm(5) = 0.00000000E+000,
celldm(6) = 0.00000000E+000,
nat = 256,
ntyp = 1,
ecutwfc = 35,
ecutrho = 208,
occupations = 'smearing',
smearing = 'mv',
degauss = 5.00000007E-002,
/
&ELECTRONS
diagonalization = 'david',
mixing_mode = plain,
mixing_beta = 6.99999988E-001,
conv_thr = 1.00000000E-007,
/
&IONS
ion_dynamics = 'bfgs',
/
&CELL
cell_dynamics = 'bfgs',
press = 0.00000000E+000,
cell_factor = 2.00000000E+000,
/
ATOMIC_SPECIES
Al  2.69815390E+001  Al.pbe-n-kjpaw_psl.0.1.UPF
ATOMIC_POSITIONS crystal
Al  -2.49612299E-003  9.39539211E-004  -9.08173937E-006
Al  1.23439805E-001  1.24093469E-001  -1.02794207E-003
Al  1.22535603E-001  1.90423667E-003  1.24815464E-001
Al  -2.49976589E-003  1.25091608E-001  1.25948414E-001
Al  1.94313202E-003  1.86618575E-005  2.48778299E-001
Al  1.24973033E-001  1.24947893E-001  2.49944929E-001
Al  1.24962429E-001  -2.47534250E-003  3.73463241E-001
Al  9.33940651E-004  1.22883006E-001  3.74580766E-001
Al  -1.25187368E-003  4.32783750E-004  5.00008960E-001
Al  1.27428062E-001  1.25867901E-001  4.99977298E-001
Al  1.24943046E-001  -1.58566570E-003  6.26116072E-001
Al  1.28557865E-004  1.25008372E-001  6.23036976E-001
Al  7.04217745E-005  4.46834733E-004  7.50138926E-001
Al  1.26255163E-001  1.27099165E-001  7.49659839E-001
Al  1.25008504E-001  2.34657995E-003  8.75008560E-001
Al  2.48462780E-003  1.26178106E-001  8.77190457E-001
Al  -1.32368950E-003  2.48551376E-001  -2.06406009E-005
Al  1.27433831E-001  3.76305208E-001  -1.87543633E-003
Al  1.23728082E-001  2.50044759E-001  1.23117143E-001
Al  1.71868280E-004  3.75037505E-001  1.23229186E-001
Al  7.69390008E-004  2.48260103E-001  2.48425566E-001
Al  1.22510163E-001  3.75896506E-001  2.49930987E-001
Al  1.27207349E-001  2.49700249E-001  3.77197236E-001
Al  1.66777446E-003  3.74671571E-001  3.76954015E-001
Al  1.79807457E-005  2.50609145E-001  5.00790673E-001
Al  1.23270056E-001  3.72521673E-001  4.99478081E-001
Al  1.25485437E-001  2.51755498E-001  6.25522674E-001
Al  1.04400046E-003  3.74924917E-001  6.25680512E-001
Al  6.17310601E-005  2.50025721E-001  7.51952266E-001
Al  1.22500730E-001  3.75902239E-001  7.50018985E-001
Al  1.24392952E-001  2.50639208E-001  8.75165911E-001
Al  -1.66525110E-003  3.74794646E-001  8.77134646E-001
Al  -6.73650432E-004  4.99952556E-001  1.88222633E-005
Al  1.25386969E-001  6.25039184E-001  -3.14741115E-004
Al  1.25050445E-001  5.00037617E-001  1.24981567E-001
Al  1.32847696E-003  6.23596160E-001  1.26564916E-001
Al  -9.16309640E-004  4.99991629E-001  2.50200781E-001
Al  1.25018158E-001  6.26812982E-001  2.50129680E-001
Al  1.25771092E-001  5.02251288E-001  3.72500032E-001
Al  2.17809438E-004  6.27018163E-001  3.74850138E-001
Al  1.85884557E-003  5.02436678E-001  5.00019626E-001
Al  1.26485093E-001  6.25086047E-001  5.02448642E-001
Al  1.26301835E-001  5.02461017E-001  6.25374959E-001
Al  5.00938255E-005  6.25018169E-001  6.24256119E-001
Al  2.00250653E-005  4.98298286E-001  7.49746726E-001
Al  1.24360442E-001  6.24753509E-001  7.47503964E-001
Al  1.23693663E-001  4.99962683E-001  8.74280566E-001
Al  1.81151408E-005  6.24407818E-001  8.76460232E-001
Al  -8.48783451E-006  7.52351942E-001  6.56452466E-004
Al  1.24975245E-001  8.76680631E-001  -1.09851319E-003
Al  1.24145522E-001  7.49587750E-001  1.27479512E-001
Al  3.49053095E-005  8.74434287E-001  1.24897843E-001
Al  8.96475983E-004  7.47768647E-001  2.51150656E-001
Al  1.27485679E-001  8.76430560E-001  2.50019421E-001
Al  1.24991171E-001  7.50133715E-001  3.75722034E-001
Al  -2.45380072E-003  8.77097979E-001  3.77258700E-001
Al  2.49373547E-003  7.47501804E-001  5.01806425E-001
Al  1.25268162E-001  8.75189957E-001  4.99576296E-001
Al  1.24485913E-001  7.47707490E-001  6.24891339E-001
Al  2.45058386E-003  8.74980523E-001  6.26573203E-001
Al  -2.26797621E-003  7.50839654E-001  7.50051761E-001
Al  1.25009098E-001  8.75018115E-001  7.47500357E-001
Al  1.24990313E-001  7.49847784E-001  8.73894433E-001
Al  1.76909040E-003  8.77241184E-001  8.76374598E-001
Al  2.47682539E-001  1.76247385E-005  1.83548426E-004
Al  3.77312565E-001  1.26916233E-001  4.72687817E-005
Al  3.77012066E-001  1.78106642E-004  1.25021172E-001
Al  2.50535909E-001  1.27488196E-001  1.24582997E-001
Al  2.50174338E-001  -1.71457855E-004  2.50008479E-001
Al  3.77089967E-001  1.25357574E-001  2.51529210E-001
Al  3.72500764E-001  -2.26462216E-005  3.76758252E-001
Al  2.48472127E-001  1.25019274E-001  3.75686595E-001
Al  2.50144196E-001  6.35199706E-005  4.99916294E-001
Al  3.76085000E-001  1.25019005E-001  5.00018115E-001
Al  3.74674536E-001  8.83757938E-005  6.22796707E-001
Al  2.50435120E-001  1.25018111E-001  6.27282466E-001
Al  2.48302908E-001  -1.80615400E-003  7.49938589E-001
Al  3.74855999E-001  1.25009596E-001  7.51793818E-001
Al  3.75331001E-001  2.25408049E-003  8.75289800E-001
Al  2.49991612E-001  1.25102047E-001  8.75008621E-001
Al  2.50029764E-001  2.48279043E-001  8.51619597E-006
Al  3.77388152E-001  3.74627687E-001  2.22668503E-003
Al  3.77224168E-001  2.49373225E-001  1.26773089E-001
Al  2.47746543E-001  3.77041284E-001  1.24991562E-001
Al  2.50032819E-001  2.49840189E-001  2.50089079E-001
Al  3.75008370E-001  3.77377444E-001  2.47522976E-001
Al  3.74233570E-001  2.49982108E-001  3.73955265E-001
Al  2.52426554E-001  3.75008373E-001  3.73149274E-001
Al  2.49963573E-001  2.52498390E-001  5.00021558E-001
Al  3.72836830E-001  3.72685167E-001  4.99673512E-001
Al  3.75018172E-001  2.50008371E-001  6.27216635E-001
Al  2.49016709E-001  3.75860452E-001  6.23739354E-001
Al  2.49927120E-001  2.47505370E-001  7.48921015E-001
Al  3.74493863E-001  3.77320815E-001  7.49981848E-001
Al  3.73393705E-001  2.49316760E-001  8.73748738E-001
Al  2.47578905E-001  3.77283177E-001  8.75008620E-001
Al  2.48662065E-001  5.01043536E-001  -1.70493594E-004
Al  3.77438698E-001  6.22823149E-001  6.63036748E-005
Al  3.72756162E-001  5.00860568E-001  1.26134340E-001
Al  2.49171462E-001  6.25018191E-001  1.23802836E-001
Al  2.50471272E-001  5.00221087E-001  2.49981726E-001
Al  3.75615943E-001  6.22552907E-001  2.50018765E-001
Al  3.77334247E-001  4.99991416E-001  3.76561113E-001
Al  2.47740112E-001  6.24815912E-001  3.72500244E-001
Al  2.49874281E-001  5.00479959E-001  4.99774952E-001
Al  3.75008390E-001  6.25425368E-001  5.00009222E-001
Al  3.73336620E-001  5.00490622E-001  6.24559509E-001
Al  2.52498525E-001  6.24080936E-001  6.25488880E-001
Al  2.49748248E-001  5.00236706E-001  7.49928091E-001
Al  3.74215562E-001  6.25155994E-001  7.49810775E-001
Al  3.75552025E-001  5.00439420E-001  8.75562442E-001
Al  2.48883677E-001  6.22512820E-001  8.74953507E-001
Al  2.50065118E-001  7.50066989E-001  2.22865740E-005
Al  3.75017117E-001  8.77396279E-001  -1.13224324E-003
Al  3.74902576E-001  7.48813863E-001  1.25080240E-001
Al  2.51267740E-001  8.75428531E-001  1.25025502E-001
Al  2.47500573E-001  7.50018367E-001  2.47823173E-001
Al  3.76305400E-001  8.74858454E-001  2.50214181E-001
Al  3.72757629E-001  7.49980765E-001  3.76466217E-001
Al  2.51393937E-001  8.77498879E-001  3.72501004E-001
Al  2.47550532E-001  7.49764786E-001  4.99981453E-001
Al  3.74920278E-001  8.75366369E-001  5.01465019E-001
Al  3.76489744E-001  7.50164269E-001  6.26497099E-001
Al  2.49961938E-001  8.75604144E-001  6.25197272E-001
Al  2.47505570E-001  7.50090608E-001  7.49991620E-001
Al  3.75112824E-001  8.77239792E-001  7.50319884E-001
Al  3.74981861E-001  7.49852386E-001  8.74298718E-001
Al  2.52469332E-001  8.74913147E-001  8.75177342E-001
Al  4.99297101E-001  3.43642473E-004  2.45356545E-005
Al  6.24855148E-001  1.23378078E-001  2.46538978E-003
Al  6.25082103E-001  8.91145964E-006  1.27404032E-001
Al  4.97649085E-001  1.23178441E-001  1.27145691E-001
Al  4.99859522E-001  -5.68364772E-004  2.50164284E-001
Al  6.25386136E-001  1.22621879E-001  2.50252798E-001
Al  6.27471697E-001  -1.75834774E-005  3.76390385E-001
Al  5.00009167E-001  1.24236279E-001  3.74576172E-001
Al  4.99325044E-001  -3.81665300E-004  4.99448177E-001
Al  6.24856370E-001  1.26056831E-001  4.99551187E-001
Al  6.24990991E-001  1.26606596E-003  6.22577605E-001
Al  5.00031198E-001  1.24496741E-001  6.24981691E-001
Al  5.00431577E-001  -1.02050407E-003  7.49883465E-001
Al  6.26972967E-001  1.25130501E-001  7.49562322E-001
Al  6.24877975E-001  -3.68605403E-004  8.77476770E-001
Al  5.00108362E-001  1.24757124E-001  8.77087374E-001
Al  5.00959949E-001  2.49789540E-001  -7.55065976E-005
Al  6.23217039E-001  3.73931640E-001  -1.40151742E-003
Al  6.24973985E-001  2.50024272E-001  1.24892291E-001
Al  5.00127154E-001  3.73171149E-001  1.26327447E-001
Al  4.99932339E-001  2.50948952E-001  2.49329113E-001
Al  6.24541655E-001  3.73153512E-001  2.49781830E-001
Al  6.26750334E-001  2.52278700E-001  3.76298386E-001
Al  4.99288088E-001  3.72689270E-001  3.77005307E-001
Al  4.99991559E-001  2.49192827E-001  4.99990845E-001
Al  6.27217300E-001  3.75648633E-001  4.99805537E-001
Al  6.24139452E-001  2.50288098E-001  6.24866453E-001
Al  4.99738720E-001  3.73243939E-001  6.24975884E-001
Al  5.00057211E-001  2.50008421E-001  7.50206412E-001
Al  6.24495108E-001  3.75657415E-001  7.49085792E-001
Al  6.24099722E-001  2.49700614E-001  8.75018841E-001
Al  5.00429952E-001  3.74434667E-001  8.75141261E-001
Al  5.00087932E-001  4.99530965E-001  -6.95017453E-004
Al  6.24525195E-001  6.25008397E-001  1.87471990E-003
Al  6.24120154E-001  4.99978792E-001  1.27374684E-001
Al  5.01330342E-001  6.25008375E-001  1.25410984E-001
Al  5.00283537E-001  4.99953381E-001  2.50938393E-001
Al  6.24771082E-001  6.23781156E-001  2.48005727E-001
Al  6.24991386E-001  4.98230587E-001  3.75476095E-001
Al  4.97539087E-001  6.22690107E-001  3.75085098E-001
Al  4.98206832E-001  5.01440389E-001  4.99981681E-001
Al  6.22560073E-001  6.25008541E-001  5.00606353E-001
Al  6.24794163E-001  4.98116031E-001  6.24651111E-001
Al  4.99980120E-001  6.27139748E-001  6.25025161E-001
Al  4.98312480E-001  4.97958080E-001  7.49981705E-001
Al  6.26756419E-001  6.24609980E-001  7.50050427E-001
Al  6.25437576E-001  4.99911966E-001  8.72945903E-001
Al  4.97848162E-001  6.25676185E-001  8.74944634E-001
Al  5.02029667E-001  7.51734138E-001  -1.84092468E-005
Al  6.22875796E-001  8.74837959E-001  -8.53200992E-004
Al  6.24974627E-001  7.49981826E-001  1.24965553E-001
Al  5.00205849E-001  8.72545246E-001  1.25409771E-001
Al  5.02249902E-001  7.50068249E-001  2.50075624E-001
Al  6.27338979E-001  8.75441269E-001  2.48360333E-001
Al  6.24957114E-001  7.51842234E-001  3.77198923E-001
Al  5.00038432E-001  8.74625607E-001  3.75075459E-001
Al  5.00202865E-001  7.51082485E-001  5.00805384E-001
Al  6.24148217E-001  8.75008566E-001  5.00008398E-001
Al  6.27130445E-001  7.48924888E-001  6.24445458E-001
Al  4.99833188E-001  8.75346225E-001  6.24860589E-001
Al  5.02499514E-001  7.49895708E-001  7.47737070E-001
Al  6.24981190E-001  8.74991140E-001  7.47670238E-001
Al  6.25371648E-001  7.49854382E-001  8.76668007E-001
Al  5.01579167E-001  8.73046535E-001  8.76673425E-001
Al  7.50880333E-001  -2.14487595E-004  -1.61146132E-004
Al  8.75963048E-001  1.22506966E-001  -9.97788382E-005
Al  8.75008935E-001  1.63726397E-004  1.24377639E-001
Al  7.49964204E-001  1.23934097E-001  1.25267588E-001
Al  7.52405416E-001  -1.85188941E-003  2.50181709E-001
Al  8.73962095E-001  1.22731877E-001  2.50694745E-001
Al  8.76501904E-001  -2.82733269E-004  3.75137900E-001
Al  7.49971191E-001  1.22609828E-001  3.73614746E-001
Al  7.50252563E-001  1.39457540E-003  5.02078557E-001
Al  8.72510284E-001  1.27163925E-001  5.01429428E-001
Al  8.76956280E-001  -8.04097634E-004  6.26323538E-001
Al  7.47915012E-001  1.25167483E-001  6.24991513E-001
Al  7.48308432E-001  -1.72626121E-003  7.52440371E-001
Al  8.75253362E-001  1.25057727E-001  7.49685652E-001
Al  8.74981289E-001  -2.49137869E-003  8.77077214E-001
Al  7.48920836E-001  1.25008567E-001  8.73695629E-001
Al  7.48801188E-001  2.50059836E-001  -2.38130607E-003
Al  8.76702087E-001  3.74899497E-001  2.01904663E-003
Al  8.76493742E-001  2.49598742E-001  1.25184258E-001
Al  7.47500266E-001  3.72859397E-001  1.24966272E-001
Al  7.49943598E-001  2.49238768E-001  2.49827023E-001
Al  8.77467415E-001  3.75025353E-001  2.50351110E-001
Al  8.75184392E-001  2.50050086E-001  3.77499777E-001
Al  7.52209375E-001  3.75447127E-001  3.74931850E-001
Al  7.52479237E-001  2.50479284E-001  5.00086593E-001
Al  8.75541332E-001  3.75033643E-001  5.02205909E-001
Al  8.72801669E-001  2.49975633E-001  6.25196384E-001
Al  7.52499103E-001  3.74792019E-001  6.24241239E-001
Al  7.51246172E-001  2.50218838E-001  7.49583360E-001
Al  8.74437461E-001  3.76199170E-001  7.47587744E-001
Al  8.72768502E-001  2.49088708E-001  8.74711466E-001
Al  7.50458303E-001  3.74977596E-001  8.74976121E-001
Al  7.48343450E-001  5.01505942E-001  1.53450727E-004
Al  8.75018889E-001  6.26493551E-001  -1.81764523E-005
Al  8.74694643E-001  5.01284492E-001  1.23521947E-001
Al  7.49748846E-001  6.27065117E-001  1.27495701E-001
Al  7.50095968E-001  5.00020166E-001  2.51625235E-001
Al  8.75273949E-001  6.24951996E-001  2.47523681E-001
Al  8.72990637E-001  4.97515926E-001  3.77034671E-001
Al  7.50050186E-001  6.24010261E-001  3.76701538E-001
Al  7.50044031E-001  4.99653219E-001  4.99389580E-001
Al  8.75107340E-001  6.25204440E-001  5.00018657E-001
Al  8.76133030E-001  4.97642511E-001  6.25595121E-001
Al  7.49791106E-001  6.24948552E-001  6.22898935E-001
Al  7.50042846E-001  4.98786323E-001  7.50114367E-001
Al  8.75438851E-001  6.25857659E-001  7.47947677E-001
Al  8.73043684E-001  5.01070824E-001  8.72676908E-001
Al  7.50018107E-001  6.24980591E-001  8.75665915E-001
Al  7.50119772E-001  7.50018108E-001  8.35277213E-004
Al  8.76885620E-001  8.75588465E-001  2.11828235E-003
Al  8.76149646E-001  7.49991210E-001  1.23282743E-001
Al  7.52499496E-001  8.76193903E-001  1.22878707E-001
Al  7.51757539E-001  7.48900372E-001  2.51307222E-001
Al  8.74937214E-001  8.74886555E-001  2.51153417E-001
Al  8.75009214E-001  7.50019813E-001  3.75092873E-001
Al  7.50575295E-001  8.72607376E-001  3.74816278E-001
Al  7.49981698E-001  7.48022482E-001  5.01437465E-001
Al  8.74723083E-001  8.75180594E-001  4.99860863E-001
Al  8.75418306E-001  7.51681008E-001  6.23789067E-001
Al  7.47541955E-001  8.75404852E-001  6.24857059E-001
Al  7.47605400E-001  7.50022266E-001  7.48493949E-001
Al  8.72534494E-001  8.75018107E-001  7.48729920E-001
Al  8.75008888E-001  7.49981053E-001  8.72639437E-001
Al  7.47502758E-001  8.77319405E-001  8.72621410E-001
K_POINTS automatic
2 2 2 1 1 1
