&CONTROL
restart_mode = 'from_scratch',
calculation = 'scf',
outdir = '/gpfs/bb/bxp912/scratch',
pseudo_dir = '/gpfs/bb/bxp912/pseudopotentials',
prefix = '2.48000000E-001',
etot_conv_thr = 1.00000000E-007,
forc_conv_thr = 1.00000000E-007,
nstep = 200,
tprnfor = .true.,
tstress = .true.,
disk_io = 'low',
/
&SYSTEM
ibrav = 14,
celldm(1) = 3.05001797E+001,
celldm(2) = 1.00000000E+000,
celldm(3) = 1.00000000E+000,
celldm(4) = 0.00000000E+000,
celldm(5) = 0.00000000E+000,
celldm(6) = 0.00000000E+000,
nat = 256,
ntyp = 1,
ecutwfc = 35,
ecutrho = 208,
occupations = 'smearing',
smearing = 'mv',
degauss = 5.00000007E-002,
/
&ELECTRONS
diagonalization = 'david',
mixing_mode = plain,
mixing_beta = 6.99999988E-001,
conv_thr = 1.00000000E-007,
/
&IONS
ion_dynamics = 'bfgs',
/
&CELL
cell_dynamics = 'bfgs',
press = 0.00000000E+000,
cell_factor = 2.00000000E+000,
/
ATOMIC_SPECIES
Al  2.69815390E+001  Al.pbe-n-kjpaw_psl.0.1.UPF
ATOMIC_POSITIONS crystal
Al  2.83885683E-005  1.33681659E-003  1.97390542E-003
Al  1.22884831E-001  1.22832113E-001  2.49986462E-003
Al  1.22591258E-001  2.30609990E-003  1.23717807E-001
Al  2.49540470E-003  1.27287347E-001  1.27307830E-001
Al  2.49231973E-003  1.13656902E-003  2.50535311E-001
Al  1.23144202E-001  1.25326703E-001  2.49944204E-001
Al  1.24173099E-001  1.55958179E-003  3.77148884E-001
Al  -1.18639866E-003  1.23302457E-001  3.73880644E-001
Al  -3.28586713E-004  5.74422329E-005  5.00018898E-001
Al  1.25692445E-001  1.22536549E-001  4.97500579E-001
Al  1.24281446E-001  -1.01596999E-004  6.25946488E-001
Al  5.65898277E-005  1.24593876E-001  6.24187087E-001
Al  -1.94373834E-004  -4.34877488E-004  7.49981017E-001
Al  1.25318346E-001  1.24508168E-001  7.49649420E-001
Al  1.27141746E-001  -2.49622762E-003  8.73433468E-001
Al  1.13022393E-003  1.25009107E-001  8.76516902E-001
Al  -2.11777962E-004  2.47556210E-001  -6.08558164E-005
Al  1.22844066E-001  3.74504505E-001  2.23433651E-003
Al  1.25018817E-001  2.48563870E-001  1.24980607E-001
Al  -5.56655579E-004  3.74726093E-001  1.24433847E-001
Al  -1.80440702E-003  2.49240967E-001  2.50030093E-001
Al  1.25078705E-001  3.74790470E-001  2.52456528E-001
Al  1.24610397E-001  2.50156735E-001  3.74297736E-001
Al  -2.48164100E-003  3.76095883E-001  3.75058519E-001
Al  -2.48108461E-003  2.49618192E-001  4.99899193E-001
Al  1.27497614E-001  3.74773431E-001  5.00181960E-001
Al  1.26318511E-001  2.49908891E-001  6.25175232E-001
Al  9.82018182E-004  3.74695727E-001  6.25577587E-001
Al  1.73191858E-005  2.50430353E-001  7.47589783E-001
Al  1.25053606E-001  3.76672230E-001  7.50018109E-001
Al  1.24749005E-001  2.48186431E-001  8.75176219E-001
Al  -4.69660409E-004  3.75023836E-001  8.77184168E-001
Al  -2.89745735E-004  5.00103198E-001  3.33202449E-004
Al  1.25504104E-001  6.23089380E-001  -8.95878297E-004
Al  1.25996095E-001  5.00055987E-001  1.22936626E-001
Al  2.50497414E-004  6.24107438E-001  1.24981776E-001
Al  -1.64614039E-004  4.99981786E-001  2.50211445E-001
Al  1.25585496E-001  6.24970698E-001  2.50203768E-001
Al  1.22500254E-001  4.98991880E-001  3.75107491E-001
Al  -2.04452178E-005  6.25008843E-001  3.74981873E-001
Al  -1.91252698E-004  5.01228412E-001  5.00008381E-001
Al  1.24938955E-001  6.22905086E-001  4.97661595E-001
Al  1.24334144E-001  5.02196609E-001  6.24559368E-001
Al  -1.29216881E-003  6.25008413E-001  6.23451460E-001
Al  -2.47870948E-003  4.98691249E-001  7.50264244E-001
Al  1.25361199E-001  6.25099156E-001  7.51502860E-001
Al  1.27424191E-001  5.00017017E-001  8.74418269E-001
Al  1.36147804E-003  6.25429570E-001  8.73814907E-001
Al  -2.41967421E-003  7.47929784E-001  -1.81658312E-004
Al  1.26461189E-001  8.75318230E-001  -1.57289232E-003
Al  1.25308888E-001  7.50135603E-001  1.26525427E-001
Al  -2.30917910E-003  8.74076627E-001  1.26518293E-001
Al  -1.82660809E-003  7.49898483E-001  2.50023606E-001
Al  1.24427392E-001  8.75308341E-001  2.50018113E-001
Al  1.25018989E-001  7.50018570E-001  3.74991439E-001
Al  -1.88659793E-005  8.74388543E-001  3.74383850E-001
Al  -8.81388401E-006  7.49473781E-001  5.01333133E-001
Al  1.23092709E-001  8.77248236E-001  4.98812922E-001
Al  1.24593315E-001  7.49210099E-001  6.23979963E-001
Al  2.01170281E-003  8.76428840E-001  6.22752659E-001
Al  1.19573700E-003  7.49154307E-001  7.52047873E-001
Al  1.22500052E-001  8.75302772E-001  7.50009002E-001
Al  1.27328806E-001  7.51752649E-001  8.74380452E-001
Al  -1.91721004E-005  8.75367374E-001  8.72883519E-001
Al  2.52462867E-001  9.44622656E-006  -1.12017750E-004
Al  3.75008722E-001  1.23594413E-001  1.02057205E-004
Al  3.74981008E-001  -1.69263068E-003  1.25446938E-001
Al  2.49974971E-001  1.25541946E-001  1.25925880E-001
Al  2.48152609E-001  -2.49825178E-003  2.49450050E-001
Al  3.75200342E-001  1.26695154E-001  2.50110854E-001
Al  3.77384964E-001  -1.90990275E-005  3.75025199E-001
Al  2.50088355E-001  1.25018769E-001  3.77396641E-001
Al  2.50146269E-001  -9.08025220E-006  5.01183095E-001
Al  3.75023553E-001  1.25008688E-001  5.00030594E-001
Al  3.73251301E-001  -2.35295103E-003  6.24838168E-001
Al  2.52493325E-001  1.25030605E-001  6.24692471E-001
Al  2.50036396E-001  2.04717867E-003  7.52206941E-001
Al  3.75061526E-001  1.25020042E-001  7.48256009E-001
Al  3.74516649E-001  -1.51389720E-003  8.74981889E-001
Al  2.48687582E-001  1.27332673E-001  8.72705405E-001
Al  2.47685468E-001  2.50952544E-001  -2.27840902E-003
Al  3.74866385E-001  3.75018592E-001  6.74460139E-005
Al  3.73554264E-001  2.52434712E-001  1.25567246E-001
Al  2.51554507E-001  3.77181856E-001  1.26779627E-001
Al  2.50072628E-001  2.49990197E-001  2.47931174E-001
Al  3.76560389E-001  3.74981417E-001  2.51911131E-001
Al  3.76585566E-001  2.50353827E-001  3.76163059E-001
Al  2.49874477E-001  3.75008618E-001  3.74920584E-001
Al  2.50064953E-001  2.48071194E-001  4.99981850E-001
Al  3.75110511E-001  3.75296541E-001  5.00128192E-001
Al  3.76051399E-001  2.50059290E-001  6.24951524E-001
Al  2.50368429E-001  3.73890453E-001  6.25109042E-001
Al  2.51054034E-001  2.49962448E-001  7.49552553E-001
Al  3.72501638E-001  3.74851533E-001  7.49690008E-001
Al  3.75055144E-001  2.50067092E-001  8.77246318E-001
Al  2.50009683E-001  3.74261009E-001  8.72539968E-001
Al  2.50018363E-001  5.00632914E-001  -5.69053558E-004
Al  3.75018694E-001  6.25018240E-001  1.81641716E-005
Al  3.75229608E-001  5.02377429E-001  1.25820663E-001
Al  2.48857474E-001  6.24899562E-001  1.25223633E-001
Al  2.50327044E-001  4.98337588E-001  2.49638152E-001
Al  3.76208001E-001  6.24981810E-001  2.49827939E-001
Al  3.76334812E-001  5.01381130E-001  3.75156605E-001
Al  2.49881199E-001  6.23425808E-001  3.76001047E-001
Al  2.49738409E-001  4.99629827E-001  5.00914423E-001
Al  3.75120543E-001  6.24979498E-001  4.99961790E-001
Al  3.76050568E-001  5.00058727E-001  6.26831743E-001
Al  2.51572763E-001  6.24653712E-001  6.23921981E-001
Al  2.52432337E-001  5.01407581E-001  7.48110416E-001
Al  3.75009264E-001  6.27159678E-001  7.49085965E-001
Al  3.72872660E-001  5.02219863E-001  8.75018126E-001
Al  2.50088866E-001  6.24071612E-001  8.74981719E-001
Al  2.49698127E-001  7.52341321E-001  9.07635093E-004
Al  3.72504715E-001  8.75418908E-001  8.04842146E-004
Al  3.74885511E-001  7.49907516E-001  1.25024573E-001
Al  2.48763759E-001  8.75008415E-001  1.26171708E-001
Al  2.50322396E-001  7.50103711E-001  2.52292841E-001
Al  3.75065657E-001  8.75052841E-001  2.51705008E-001
Al  3.74978344E-001  7.52491945E-001  3.77497901E-001
Al  2.47673274E-001  8.72963889E-001  3.75480592E-001
Al  2.49773104E-001  7.49975463E-001  5.00008987E-001
Al  3.75023908E-001  8.74313067E-001  5.02472345E-001
Al  3.74991626E-001  7.47530534E-001  6.24736422E-001
Al  2.47564419E-001  8.74638754E-001  6.23153736E-001
Al  2.52462863E-001  7.47508592E-001  7.49924800E-001
Al  3.75087285E-001  8.74810724E-001  7.49345848E-001
Al  3.74973852E-001  7.50081584E-001  8.77489557E-001
Al  2.51862305E-001  8.76964403E-001  8.74685365E-001
Al  5.00419650E-001  -9.55218929E-004  2.47714092E-004
Al  6.25364031E-001  1.24990722E-001  -2.12474193E-003
Al  6.24976682E-001  1.86683722E-005  1.24960825E-001
Al  4.98295598E-001  1.25305979E-001  1.26296876E-001
Al  4.97642510E-001  9.69216982E-006  2.49477538E-001
Al  6.22503025E-001  1.26425199E-001  2.47598227E-001
Al  6.24928235E-001  -8.62899895E-006  3.76117484E-001
Al  5.02395331E-001  1.25039534E-001  3.76077700E-001
Al  5.02000226E-001  -5.59140343E-005  4.98230959E-001
Al  6.25550593E-001  1.23751470E-001  4.98217204E-001
Al  6.27347688E-001  2.62935987E-005  6.23645493E-001
Al  4.98301362E-001  1.22847335E-001  6.26003458E-001
Al  5.01222927E-001  1.54415637E-003  7.49965888E-001
Al  6.25073385E-001  1.25521848E-001  7.48135418E-001
Al  6.24548502E-001  -9.98417128E-004  8.73224903E-001
Al  4.97550909E-001  1.22500167E-001  8.74615459E-001
Al  4.98473376E-001  2.51404228E-001  7.39238367E-004
Al  6.26380022E-001  3.74928638E-001  -2.20063253E-003
Al  6.23518411E-001  2.48222919E-001  1.24752103E-001
Al  4.97519729E-001  3.77412633E-001  1.22868371E-001
Al  5.02215438E-001  2.49982697E-001  2.52493044E-001
Al  6.24954299E-001  3.73566533E-001  2.50008472E-001
Al  6.24772693E-001  2.49956313E-001  3.73299486E-001
Al  5.00029683E-001  3.75237604E-001  3.74982220E-001
Al  5.02478206E-001  2.49186824E-001  5.00917559E-001
Al  6.23401379E-001  3.75017876E-001  5.02436374E-001
Al  6.24895889E-001  2.49811244E-001  6.23845160E-001
Al  4.99970095E-001  3.77278950E-001  6.24980487E-001
Al  5.00781514E-001  2.49872762E-001  7.49955803E-001
Al  6.23152847E-001  3.76426386E-001  7.49946607E-001
Al  6.25042621E-001  2.50074455E-001  8.74709664E-001
Al  5.01316796E-001  3.72537266E-001  8.74966848E-001
Al  5.02487402E-001  5.00272106E-001  -6.09734220E-004
Al  6.24981655E-001  6.26068792E-001  8.80599023E-006
Al  6.23092120E-001  4.99345200E-001  1.23858465E-001
Al  5.00168836E-001  6.25193096E-001  1.27308562E-001
Al  4.97787656E-001  4.99283490E-001  2.49596775E-001
Al  6.26739964E-001  6.26022921E-001  2.48055184E-001
Al  6.24881827E-001  5.00242634E-001  3.76950822E-001
Al  4.98066213E-001  6.25008381E-001  3.75032916E-001
Al  5.00345886E-001  5.00951981E-001  5.02454985E-001
Al  6.25008741E-001  6.25018769E-001  5.01848633E-001
Al  6.25460999E-001  5.00073196E-001  6.24976562E-001
Al  4.99976911E-001  6.25809297E-001  6.26613876E-001
Al  5.01310465E-001  4.97770526E-001  7.49122183E-001
Al  6.24981638E-001  6.24519043E-001  7.51060863E-001
Al  6.25442009E-001  5.02036013E-001  8.74064224E-001
Al  4.99858259E-001  6.25181049E-001  8.74637885E-001
Al  5.00119311E-001  7.50062462E-001  2.37417698E-003
Al  6.24174028E-001  8.73521786E-001  1.06875630E-003
Al  6.24645556E-001  7.47976192E-001  1.27499529E-001
Al  5.02499938E-001  8.73424074E-001  1.23137676E-001
Al  4.99935750E-001  7.49212595E-001  2.49004302E-001
Al  6.25055617E-001  8.73855026E-001  2.48033016E-001
Al  6.24634123E-001  7.51563702E-001  3.77125473E-001
Al  4.99177896E-001  8.74837240E-001  3.73006146E-001
Al  4.98533273E-001  7.50137641E-001  4.99590443E-001
Al  6.22732271E-001  8.75490650E-001  4.99910841E-001
Al  6.23108904E-001  7.49885271E-001  6.25687965E-001
Al  5.01288631E-001  8.73719535E-001  6.23582117E-001
Al  4.98168809E-001  7.51285847E-001  7.47745338E-001
Al  6.24869207E-001  8.75416205E-001  7.47610158E-001
Al  6.23889363E-001  7.52341468E-001  8.74991605E-001
Al  4.97578483E-001  8.72593659E-001  8.73899181E-001
Al  7.49967799E-001  -8.56646209E-006  -2.37712775E-003
Al  8.74748791E-001  1.24857404E-001  -7.28030200E-005
Al  8.77053332E-001  5.31948415E-004  1.24317139E-001
Al  7.49892695E-001  1.25027245E-001  1.24229071E-001
Al  7.50490854E-001  -2.14230293E-003  2.47539815E-001
Al  8.76781550E-001  1.27140915E-001  2.48238991E-001
Al  8.75025627E-001  1.93537117E-003  3.75695961E-001
Al  7.51503116E-001  1.25018541E-001  3.74981296E-001
Al  7.50059015E-001  2.26411228E-003  5.01440244E-001
Al  8.76408032E-001  1.26273389E-001  5.00107182E-001
Al  8.76796266E-001  2.07049372E-003  6.22784765E-001
Al  7.50682115E-001  1.27496927E-001  6.25535689E-001
Al  7.50148537E-001  5.85290664E-004  7.50131272E-001
Al  8.77487570E-001  1.24603285E-001  7.49674771E-001
Al  8.75090877E-001  1.29280228E-003  8.74009836E-001
Al  7.51297516E-001  1.25863051E-001  8.75151403E-001
Al  7.51493897E-001  2.50018952E-001  1.43731727E-003
Al  8.77472091E-001  3.75008552E-001  -1.36281989E-004
Al  8.74014320E-001  2.49982000E-001  1.24966947E-001
Al  7.48932089E-001  3.72605001E-001  1.24419431E-001
Al  7.48627200E-001  2.49402828E-001  2.50383438E-001
Al  8.74480959E-001  3.75018350E-001  2.47888282E-001
Al  8.74441873E-001  2.50020020E-001  3.73989397E-001
Al  7.49891774E-001  3.77160397E-001  3.74069031E-001
Al  7.49913152E-001  2.50008607E-001  4.99914169E-001
Al  8.76538210E-001  3.74010627E-001  5.00114311E-001
Al  8.73629274E-001  2.50047355E-001  6.25229106E-001
Al  7.52421520E-001  3.72760233E-001  6.25036677E-001
Al  7.49850211E-001  2.49976707E-001  7.47852517E-001
Al  8.74913670E-001  3.73658238E-001  7.50427311E-001
Al  8.76825458E-001  2.50400369E-001  8.74859301E-001
Al  7.52247963E-001  3.74981680E-001  8.77189168E-001
Al  7.50045487E-001  4.99926278E-001  -1.81979723E-005
Al  8.75018451E-001  6.24980113E-001  -1.74514247E-003
Al  8.74990958E-001  4.99981884E-001  1.24192626E-001
Al  7.50799180E-001  6.24960416E-001  1.24809631E-001
Al  7.51720862E-001  5.00260850E-001  2.50742388E-001
Al  8.75022611E-001  6.24239080E-001  2.51397951E-001
Al  8.74646096E-001  4.99991032E-001  3.74814092E-001
Al  7.49947264E-001  6.25026945E-001  3.75008476E-001
Al  7.50798335E-001  4.97553079E-001  5.00008370E-001
Al  8.77181411E-001  6.25100029E-001  4.99942488E-001
Al  8.75694372E-001  4.99860688E-001  6.23322627E-001
Al  7.49941142E-001  6.24991144E-001  6.25033954E-001
Al  7.48373977E-001  5.00032950E-001  7.47558362E-001
Al  8.75045734E-001  6.25409450E-001  7.50303101E-001
Al  8.74590768E-001  5.00018206E-001  8.76378901E-001
Al  7.51756950E-001  6.22782285E-001  8.74897057E-001
Al  7.50834834E-001  7.49990712E-001  -1.85219265E-005
Al  8.75172629E-001  8.73987626E-001  5.25199314E-004
Al  8.74982936E-001  7.48317609E-001  1.25008733E-001
Al  7.49981818E-001  8.74430945E-001  1.26440991E-001
Al  7.51780196E-001  7.50008661E-001  2.52161140E-001
Al  8.74949836E-001  8.76510816E-001  2.51209014E-001
Al  8.76227977E-001  7.51686118E-001  3.76164954E-001
Al  7.50896025E-001  8.74934447E-001  3.75023048E-001
Al  7.49383573E-001  7.49649752E-001  5.02497484E-001
Al  8.74651859E-001  8.73331367E-001  5.00071113E-001
Al  8.75334553E-001  7.49654948E-001  6.24949140E-001
Al  7.50733584E-001  8.75203735E-001  6.25296193E-001
Al  7.50067597E-001  7.51132698E-001  7.50096825E-001
Al  8.74635472E-001  8.76568021E-001  7.48845413E-001
Al  8.72580130E-001  7.49915422E-001  8.76260225E-001
Al  7.48385107E-001  8.76956096E-001  8.75018514E-001
K_POINTS automatic
2 2 2 1 1 1
