&CONTROL
restart_mode = 'from_scratch',
calculation = 'scf',
outdir = '/gpfs/bb/bxp912/scratch',
pseudo_dir = '/gpfs/bb/bxp912/pseudopotentials',
prefix = '2.48000000E-001',
etot_conv_thr = 1.00000000E-007,
forc_conv_thr = 1.00000000E-007,
nstep = 200,
tprnfor = .true.,
tstress = .true.,
disk_io = 'low',
/
&SYSTEM
ibrav = 14,
celldm(1) = 3.05001797E+001,
celldm(2) = 1.00000000E+000,
celldm(3) = 1.00000000E+000,
celldm(4) = 0.00000000E+000,
celldm(5) = 0.00000000E+000,
celldm(6) = 0.00000000E+000,
nat = 256,
ntyp = 1,
ecutwfc = 35,
ecutrho = 208,
occupations = 'smearing',
smearing = 'mv',
degauss = 5.00000007E-002,
/
&ELECTRONS
diagonalization = 'david',
mixing_mode = plain,
mixing_beta = 6.99999988E-001,
conv_thr = 1.00000000E-007,
/
&IONS
ion_dynamics = 'bfgs',
/
&CELL
cell_dynamics = 'bfgs',
press = 0.00000000E+000,
cell_factor = 2.00000000E+000,
/
ATOMIC_SPECIES
Al  2.69815390E+001  Al.pbe-n-kjpaw_psl.0.1.UPF
ATOMIC_POSITIONS crystal
Al  -1.78985226E-005  -6.59966455E-004  8.54214825E-006
Al  1.25104488E-001  1.27354598E-001  -7.43580257E-004
Al  1.24990828E-001  4.39030805E-004  1.26117038E-001
Al  -6.58850945E-004  1.25207664E-001  1.25148975E-001
Al  2.20813155E-003  1.18600380E-003  2.50019465E-001
Al  1.24979780E-001  1.27426249E-001  2.47525012E-001
Al  1.27411595E-001  2.06680244E-003  3.72991157E-001
Al  -1.77750378E-003  1.25389938E-001  3.75405221E-001
Al  5.03762272E-005  -8.97903319E-005  5.00202209E-001
Al  1.26090799E-001  1.23650026E-001  4.99976266E-001
Al  1.24980975E-001  6.42925771E-005  6.23573953E-001
Al  4.34855041E-005  1.24725601E-001  6.23222149E-001
Al  -1.37004753E-004  1.28285655E-003  7.49805807E-001
Al  1.23633653E-001  1.25302254E-001  7.49991557E-001
Al  1.22999627E-001  -2.51939894E-005  8.77496884E-001
Al  6.62238227E-005  1.26540819E-001  8.74703176E-001
Al  -3.57623519E-004  2.49918926E-001  -1.39018108E-003
Al  1.24049957E-001  3.76230740E-001  2.23861179E-003
Al  1.24794050E-001  2.50025691E-001  1.25467058E-001
Al  -2.52307334E-004  3.74906409E-001  1.23963248E-001
Al  -1.56858543E-003  2.50690313E-001  2.50400832E-001
Al  1.24749377E-001  3.74159039E-001  2.47500143E-001
Al  1.25008771E-001  2.47669049E-001  3.75066374E-001
Al  -2.33286523E-003  3.73694526E-001  3.75008830E-001
Al  -8.52066254E-006  2.49980016E-001  4.99838816E-001
Al  1.26229900E-001  3.76926988E-001  5.00046766E-001
Al  1.24887648E-001  2.50200331E-001  6.22778899E-001
Al  1.94426013E-004  3.75038734E-001  6.25017683E-001
Al  -2.48515731E-003  2.51995361E-001  7.48844618E-001
Al  1.22501220E-001  3.74964260E-001  7.50796819E-001
Al  1.25332092E-001  2.48192803E-001  8.76094453E-001
Al  6.05986611E-004  3.77224514E-001  8.75754863E-001
Al  -1.70618567E-005  4.98158630E-001  -1.35916424E-003
Al  1.24978939E-001  6.22587739E-001  -9.54152463E-006
Al  1.25323772E-001  5.01039038E-001  1.25008925E-001
Al  1.87414879E-005  6.26001133E-001  1.23823618E-001
Al  8.60052395E-006  4.99258365E-001  2.49583831E-001
Al  1.25051338E-001  6.25018120E-001  2.50518527E-001
Al  1.24849971E-001  4.99702493E-001  3.76400162E-001
Al  -9.25175421E-006  6.27284526E-001  3.75154535E-001
Al  1.62847304E-003  4.98942936E-001  4.98556050E-001
Al  1.24728892E-001  6.27159569E-001  5.00511353E-001
Al  1.24851873E-001  5.02260810E-001  6.22534311E-001
Al  -1.11720209E-003  6.25113128E-001  6.25026651E-001
Al  -7.76386860E-004  5.01697782E-001  7.50034881E-001
Al  1.25716820E-001  6.23178819E-001  7.50035924E-001
Al  1.26943491E-001  5.01642863E-001  8.74886613E-001
Al  -1.03680727E-003  6.25931938E-001  8.77051141E-001
Al  -8.87106680E-004  7.52216958E-001  5.54056123E-004
Al  1.24894104E-001  8.77461475E-001  1.43337892E-004
Al  1.24581012E-001  7.49463401E-001  1.25788052E-001
Al  5.34425653E-004  8.74367513E-001  1.25364381E-001
Al  1.05055858E-003  7.49980265E-001  2.50217302E-001
Al  1.25845696E-001  8.75018272E-001  2.50331920E-001
Al  1.25392082E-001  7.52325644E-001  3.75024208E-001
Al  1.69058842E-003  8.74617841E-001  3.77030298E-001
Al  1.45835458E-004  7.50142270E-001  5.00039045E-001
Al  1.23063629E-001  8.72653413E-001  4.99990325E-001
Al  1.26604987E-001  7.49981823E-001  6.25340152E-001
Al  -2.22500895E-003  8.74836282E-001  6.25449216E-001
Al  -1.72791115E-004  7.50874652E-001  7.50353515E-001
Al  1.25008709E-001  8.74875724E-001  7.50018155E-001
Al  1.24215471E-001  7.50370155E-001  8.75774687E-001
Al  1.26908818E-003  8.74378545E-001  8.72824136E-001
Al  2.50909065E-001  2.46210135E-003  2.49514229E-003
Al  3.74277665E-001  1.26079519E-001  1.56834846E-004
Al  3.73035245E-001  1.23453753E-003  1.25347721E-001
Al  2.47521635E-001  1.25659866E-001  1.24573556E-001
Al  2.48193392E-001  -6.79035743E-004  2.50539607E-001
Al  3.72848012E-001  1.25177747E-001  2.50827058E-001
Al  3.73652647E-001  -2.36994054E-003  3.72510741E-001
Al  2.47663502E-001  1.25523303E-001  3.75008661E-001
Al  2.50224020E-001  -1.91169467E-005  4.98264270E-001
Al  3.75199496E-001  1.22523489E-001  4.99276843E-001
Al  3.72500492E-001  -1.03760509E-004  6.25514358E-001
Al  2.50359732E-001  1.25140215E-001  6.26603930E-001
Al  2.49752517E-001  -9.54608865E-004  7.50019578E-001
Al  3.75672247E-001  1.25134828E-001  7.48386242E-001
Al  3.74400478E-001  -2.38705107E-005  8.77047275E-001
Al  2.49762724E-001  1.24336178E-001  8.75624853E-001
Al  2.52477005E-001  2.49969944E-001  -1.72597198E-004
Al  3.76074818E-001  3.77358426E-001  -7.86876687E-005
Al  3.72570380E-001  2.52424575E-001  1.25321910E-001
Al  2.49952910E-001  3.76109286E-001  1.24205592E-001
Al  2.50891964E-001  2.52285570E-001  2.49991486E-001
Al  3.75080320E-001  3.74481232E-001  2.51160955E-001
Al  3.74734235E-001  2.48217602E-001  3.77468637E-001
Al  2.51391007E-001  3.72500886E-001  3.72605711E-001
Al  2.50114200E-001  2.52092840E-001  5.01945591E-001
Al  3.73976579E-001  3.74501472E-001  5.00008921E-001
Al  3.72743610E-001  2.49492376E-001  6.23154895E-001
Al  2.49972454E-001  3.74765656E-001  6.24385890E-001
Al  2.52499808E-001  2.49792281E-001  7.52163838E-001
Al  3.76319912E-001  3.75620462E-001  7.49938005E-001
Al  3.75471900E-001  2.50029001E-001  8.72770665E-001
Al  2.49967972E-001  3.74606496E-001  8.74743249E-001
Al  2.49817026E-001  4.99423218E-001  5.19588236E-004
Al  3.74976552E-001  6.25765796E-001  3.01260843E-004
Al  3.75468145E-001  4.99435949E-001  1.27196381E-001
Al  2.50290143E-001  6.22584013E-001  1.24979186E-001
Al  2.52174546E-001  5.01388945E-001  2.52103156E-001
Al  3.74523384E-001  6.22500847E-001  2.49767202E-001
Al  3.77415071E-001  4.97796786E-001  3.74991069E-001
Al  2.49386361E-001  6.24502262E-001  3.75397394E-001
Al  2.50023975E-001  4.99210286E-001  5.02336292E-001
Al  3.76092061E-001  6.24968523E-001  5.00019782E-001
Al  3.77117710E-001  5.00688494E-001  6.23853309E-001
Al  2.51554713E-001  6.25370713E-001  6.24982163E-001
Al  2.47500219E-001  5.01910776E-001  7.50163309E-001
Al  3.74977443E-001  6.26374691E-001  7.52485610E-001
Al  3.73864914E-001  4.99561445E-001  8.75008686E-001
Al  2.50051503E-001  6.25076790E-001  8.76957482E-001
Al  2.51658686E-001  7.47724324E-001  8.48385189E-004
Al  3.75210321E-001  8.76097519E-001  -1.35863051E-003
Al  3.76638635E-001  7.49902200E-001  1.27487834E-001
Al  2.49945065E-001  8.75401220E-001  1.25048935E-001
Al  2.52059021E-001  7.50213976E-001  2.47689098E-001
Al  3.72638299E-001  8.72506622E-001  2.51129429E-001
Al  3.75209694E-001  7.48210950E-001  3.75956801E-001
Al  2.51521096E-001  8.73756133E-001  3.75473482E-001
Al  2.49991468E-001  7.49260051E-001  5.00051233E-001
Al  3.74897259E-001  8.74205970E-001  4.98893827E-001
Al  3.75340104E-001  7.51811663E-001  6.27323430E-001
Al  2.50841159E-001  8.75416998E-001  6.23620701E-001
Al  2.49236436E-001  7.49991362E-001  7.50250635E-001
Al  3.74947613E-001  8.74694460E-001  7.50752108E-001
Al  3.75256288E-001  7.47792749E-001  8.74934509E-001
Al  2.49753677E-001  8.76977609E-001  8.72738224E-001
Al  4.99990903E-001  6.41144592E-005  -1.14661197E-004
Al  6.22527372E-001  1.27259007E-001  -5.32470888E-005
Al  6.26326316E-001  1.90003123E-003  1.23092592E-001
Al  5.02065225E-001  1.25183129E-001  1.24861000E-001
Al  4.99693008E-001  3.36858753E-004  2.50008634E-001
Al  6.23078847E-001  1.27381827E-001  2.49277412E-001
Al  6.25020167E-001  -1.85560460E-005  3.75070045E-001
Al  5.00539845E-001  1.22803403E-001  3.75008842E-001
Al  5.00077163E-001  3.20973131E-004  4.98374002E-001
Al  6.22592867E-001  1.24193817E-001  5.00071857E-001
Al  6.23852459E-001  1.46751444E-003  6.26207780E-001
Al  4.99803559E-001  1.24142978E-001  6.27320425E-001
Al  5.00251153E-001  2.13181691E-003  7.49970826E-001
Al  6.25536646E-001  1.23631410E-001  7.49945405E-001
Al  6.24340951E-001  -4.06029464E-004  8.75298162E-001
Al  4.98362046E-001  1.25194232E-001  8.74981868E-001
Al  4.99788269E-001  2.48141989E-001  2.48654336E-003
Al  6.25282071E-001  3.74991481E-001  2.48736453E-003
Al  6.24437538E-001  2.50209523E-001  1.27495333E-001
Al  5.00168672E-001  3.74303272E-001  1.22540242E-001
Al  5.01925080E-001  2.49382564E-001  2.50008832E-001
Al  6.25029158E-001  3.76157728E-001  2.49416500E-001
Al  6.26240295E-001  2.51248157E-001  3.74892622E-001
Al  4.98545317E-001  3.72504838E-001  3.77367752E-001
Al  4.97845749E-001  2.52413785E-001  4.98549588E-001
Al  6.24980957E-001  3.74902042E-001  4.99928495E-001
Al  6.24918292E-001  2.50018508E-001  6.24974450E-001
Al  5.01965868E-001  3.75018758E-001  6.24991012E-001
Al  5.00461250E-001  2.50392817E-001  7.49955749E-001
Al  6.26265959E-001  3.75694404E-001  7.50581278E-001
Al  6.23423346E-001  2.50407777E-001  8.75720854E-001
Al  4.99936921E-001  3.72698669E-001  8.75264147E-001
Al  5.00878628E-001  5.01969103E-001  -2.12362040E-003
Al  6.24909692E-001  6.24794865E-001  3.53056946E-004
Al  6.22570797E-001  5.00199989E-001  1.23843818E-001
Al  5.02276474E-001  6.26917624E-001  1.26258504E-001
Al  5.01709900E-001  5.00756858E-001  2.52269156E-001
Al  6.23738073E-001  6.24957913E-001  2.50348555E-001
Al  6.25130846E-001  5.02484923E-001  3.73741478E-001
Al  4.99498128E-001  6.27141892E-001  3.74744119E-001
Al  5.01596085E-001  5.01737892E-001  4.97930889E-001
Al  6.24990955E-001  6.24333956E-001  4.99991020E-001
Al  6.27374402E-001  5.00520764E-001  6.23706279E-001
Al  5.00858984E-001  6.24657978E-001  6.25277166E-001
Al  4.99319042E-001  5.02433089E-001  7.50190805E-001
Al  6.24833408E-001  6.22620335E-001  7.49955100E-001
Al  6.25564575E-001  4.99965136E-001  8.75008703E-001
Al  5.01455536E-001  6.25018109E-001  8.77121033E-001
Al  5.00718334E-001  7.49972755E-001  6.06675189E-005
Al  6.25018499E-001  8.75728333E-001  -1.86127511E-003
Al  6.24944574E-001  7.49972792E-001  1.24981792E-001
Al  4.99432991E-001  8.75651318E-001  1.25061030E-001
Al  4.99124806E-001  7.49803460E-001  2.47646312E-001
Al  6.27476555E-001  8.73719471E-001  2.50018163E-001
Al  6.27499412E-001  7.47533120E-001  3.74991620E-001
Al  5.01677284E-001  8.74703872E-001  3.73829265E-001
Al  5.01070100E-001  7.49936145E-001  4.99976724E-001
Al  6.24891843E-001  8.75473097E-001  5.00849806E-001
Al  6.27432782E-001  7.52497587E-001  6.25103160E-001
Al  5.00058929E-001  8.74967711E-001  6.25061823E-001
Al  5.00028508E-001  7.52483646E-001  7.49990683E-001
Al  6.23095999E-001  8.75018508E-001  7.51080480E-001
Al  6.24981093E-001  7.50583186E-001  8.75452317E-001
Al  4.99521988E-001  8.75798263E-001  8.77485260E-001
Al  7.51628592E-001  3.41973631E-005  2.47029583E-003
Al  8.74981199E-001  1.25178208E-001  -3.00072533E-004
Al  8.72736874E-001  7.48495043E-004  1.22948639E-001
Al  7.50128576E-001  1.25272195E-001  1.25100621E-001
Al  7.49980072E-001  -1.67236942E-003  2.50018198E-001
Al  8.75065785E-001  1.23881682E-001  2.52036520E-001
Al  8.74990921E-001  1.84854323E-005  3.73721836E-001
Al  7.51879940E-001  1.26464533E-001  3.75456070E-001
Al  7.49324734E-001  4.45094669E-004  5.01157630E-001
Al  8.74197073E-001  1.22583601E-001  5.00882302E-001
Al  8.74991630E-001  4.58487931E-005  6.24991263E-001
Al  7.50739492E-001  1.25208250E-001  6.25144916E-001
Al  7.50029281E-001  -6.86399376E-004  7.50317281E-001
Al  8.74498546E-001  1.25370428E-001  7.49981849E-001
Al  8.74724383E-001  1.24052150E-003  8.75413460E-001
Al  7.51989735E-001  1.26781713E-001  8.74942318E-001
Al  7.49991049E-001  2.50098491E-001  -2.77361292E-005
Al  8.72829963E-001  3.73982450E-001  4.39654306E-005
Al  8.75008413E-001  2.50009230E-001  1.25108624E-001
Al  7.47698430E-001  3.77476259E-001  1.22703603E-001
Al  7.50947140E-001  2.48869315E-001  2.50335026E-001
Al  8.77292029E-001  3.75019133E-001  2.50645366E-001
Al  8.72516433E-001  2.49619361E-001  3.74981359E-001
Al  7.50070001E-001  3.74978679E-001  3.74990767E-001
Al  7.49768886E-001  2.47600235E-001  4.98909228E-001
Al  8.74942175E-001  3.74928856E-001  5.00126411E-001
Al  8.75008484E-001  2.48005524E-001  6.24898492E-001
Al  7.49954106E-001  3.75267541E-001  6.26413547E-001
Al  7.49980725E-001  2.49991348E-001  7.50727270E-001
Al  8.76796322E-001  3.75463217E-001  7.47506524E-001
Al  8.75023710E-001  2.48844921E-001  8.74489735E-001
Al  7.50217018E-001  3.77442404E-001  8.75694560E-001
Al  7.50372870E-001  4.99438320E-001  1.39582945E-003
Al  8.75068241E-001  6.24991357E-001  -9.58197776E-006
Al  8.77153393E-001  4.99176899E-001  1.25744568E-001
Al  7.50026343E-001  6.24267631E-001  1.23319222E-001
Al  7.49132612E-001  4.99708352E-001  2.48218497E-001
Al  8.73793870E-001  6.24786413E-001  2.50008510E-001
Al  8.76129897E-001  4.98963265E-001  3.74875276E-001
Al  7.49981718E-001  6.25278666E-001  3.74991583E-001
Al  7.49980611E-001  4.99656383E-001  5.00065238E-001
Al  8.75274712E-001  6.26925509E-001  4.99965405E-001
Al  8.74979499E-001  5.00064157E-001  6.25997643E-001
Al  7.49981171E-001  6.25021070E-001  6.25077875E-001
Al  7.49723979E-001  4.99577210E-001  7.49758692E-001
Al  8.72818695E-001  6.25233336E-001  7.50008718E-001
Al  8.73347469E-001  4.97626618E-001  8.72586109E-001
Al  7.49981529E-001  6.25045308E-001  8.73471631E-001
Al  7.47592744E-001  7.48997985E-001  2.06385005E-003
Al  8.76325667E-001  8.76854853E-001  -8.03653499E-004
Al  8.75008414E-001  7.50027915E-001  1.25031913E-001
Al  7.49620883E-001  8.77184379E-001  1.25116662E-001
Al  7.48660404E-001  7.51236227E-001  2.49353321E-001
Al  8.75361205E-001  8.74937198E-001  2.51731249E-001
Al  8.75321374E-001  7.49883456E-001  3.74789162E-001
Al  7.50416058E-001  8.74672796E-001  3.74300489E-001
Al  7.48231740E-001  7.48149142E-001  5.00627032E-001
Al  8.75506370E-001  8.73177702E-001  4.97537301E-001
Al  8.75695336E-001  7.50008371E-001  6.24991566E-001
Al  7.50271349E-001  8.73530094E-001  6.27299797E-001
Al  7.49501766E-001  7.49774915E-001  7.48951608E-001
Al  8.77475831E-001  8.75023197E-001  7.49990995E-001
Al  8.76263508E-001  7.50225529E-001  8.74883037E-001
Al  7.51149136E-001  8.77272643E-001  8.75420050E-001
K_POINTS automatic
2 2 2 1 1 1
