&CONTROL
restart_mode = 'from_scratch',
calculation = 'scf',
outdir = '/gpfs/bb/bxp912/scratch',
pseudo_dir = '/gpfs/bb/bxp912/pseudopotentials',
prefix = '2.48000000E-001',
etot_conv_thr = 1.00000000E-007,
forc_conv_thr = 1.00000000E-007,
nstep = 200,
tprnfor = .true.,
tstress = .true.,
disk_io = 'low',
/
&SYSTEM
ibrav = 14,
celldm(1) = 3.05001797E+001,
celldm(2) = 1.00000000E+000,
celldm(3) = 1.00000000E+000,
celldm(4) = 0.00000000E+000,
celldm(5) = 0.00000000E+000,
celldm(6) = 0.00000000E+000,
nat = 256,
ntyp = 1,
ecutwfc = 35,
ecutrho = 208,
occupations = 'smearing',
smearing = 'mv',
degauss = 5.00000007E-002,
/
&ELECTRONS
diagonalization = 'david',
mixing_mode = plain,
mixing_beta = 6.99999988E-001,
conv_thr = 1.00000000E-007,
/
&IONS
ion_dynamics = 'bfgs',
/
&CELL
cell_dynamics = 'bfgs',
press = 0.00000000E+000,
cell_factor = 2.00000000E+000,
/
ATOMIC_SPECIES
Al  2.69815390E+001  Al.pbe-n-kjpaw_psl.0.1.UPF
ATOMIC_POSITIONS crystal
Al  -1.81559145E-005  2.31958636E-003  1.83016114E-005
Al  1.23208628E-001  1.24979947E-001  -7.73663188E-004
Al  1.25180641E-001  2.27693697E-003  1.25008665E-001
Al  -2.20958515E-003  1.25023328E-001  1.24624976E-001
Al  1.27190352E-004  -1.60502156E-003  2.50008774E-001
Al  1.27190953E-001  1.24991568E-001  2.49990872E-001
Al  1.23395222E-001  2.06895116E-003  3.72746023E-001
Al  -8.71211742E-006  1.23958952E-001  3.74637289E-001
Al  1.84855013E-005  -2.18941322E-003  5.00094598E-001
Al  1.27400340E-001  1.26343951E-001  4.99972495E-001
Al  1.22680393E-001  1.39530369E-003  6.25528417E-001
Al  6.00790649E-004  1.26537085E-001  6.24976847E-001
Al  1.14533397E-003  3.05294685E-004  7.51855342E-001
Al  1.24763729E-001  1.22851670E-001  7.49511789E-001
Al  1.25018156E-001  1.74671673E-003  8.75132591E-001
Al  2.65849070E-004  1.24981375E-001  8.77486575E-001
Al  1.85261473E-005  2.50034756E-001  2.46293380E-003
Al  1.23423816E-001  3.75018906E-001  2.30212330E-003
Al  1.22538811E-001  2.48134901E-001  1.27482869E-001
Al  2.91846207E-004  3.74918683E-001  1.24940133E-001
Al  -1.04140937E-003  2.47527158E-001  2.47866455E-001
Al  1.24386795E-001  3.75022418E-001  2.47646611E-001
Al  1.22506177E-001  2.49970390E-001  3.74967506E-001
Al  2.49365165E-003  3.75747814E-001  3.75019984E-001
Al  3.00255798E-005  2.49427121E-001  4.99910430E-001
Al  1.24200716E-001  3.75471590E-001  4.97751382E-001
Al  1.25159334E-001  2.51705824E-001  6.24980069E-001
Al  2.09813847E-003  3.74991374E-001  6.24977579E-001
Al  2.24325252E-003  2.52493905E-001  7.49764497E-001
Al  1.22507648E-001  3.74938520E-001  7.49590100E-001
Al  1.25408365E-001  2.47967475E-001  8.75104825E-001
Al  3.42804709E-005  3.77040231E-001  8.74002595E-001
Al  -1.81341866E-005  5.00039549E-001  -2.42477836E-003
Al  1.26720644E-001  6.24363654E-001  2.42659217E-003
Al  1.23089838E-001  4.99960456E-001  1.24880037E-001
Al  -3.95029575E-004  6.25455498E-001  1.25079480E-001
Al  3.03033906E-005  5.00301336E-001  2.49948490E-001
Al  1.25023855E-001  6.24681933E-001  2.50620759E-001
Al  1.24935854E-001  4.99909460E-001  3.75810145E-001
Al  -4.98519477E-004  6.24979761E-001  3.75944466E-001
Al  2.47266080E-003  4.99136802E-001  5.02404800E-001
Al  1.27441678E-001  6.22664579E-001  4.98540827E-001
Al  1.25391475E-001  5.00409077E-001  6.26853094E-001
Al  -1.96010706E-005  6.22570816E-001  6.24664064E-001
Al  1.98879192E-004  4.99769785E-001  7.49320602E-001
Al  1.25100822E-001  6.22617143E-001  7.48318445E-001
Al  1.24981869E-001  5.01723104E-001  8.75183141E-001
Al  -2.24264434E-004  6.25008866E-001  8.75041930E-001
Al  2.48022965E-003  7.51611947E-001  -2.48660937E-003
Al  1.22693863E-001  8.75747136E-001  -4.63350822E-004
Al  1.24448594E-001  7.50237720E-001  1.25018789E-001
Al  2.03211267E-003  8.75018693E-001  1.27155901E-001
Al  1.82770273E-003  7.47575017E-001  2.51726777E-001
Al  1.22581828E-001  8.74064473E-001  2.52446124E-001
Al  1.25712245E-001  7.50064973E-001  3.75018771E-001
Al  5.52539166E-004  8.72500162E-001  3.75067424E-001
Al  -2.83802970E-005  7.50947862E-001  4.99941946E-001
Al  1.23474925E-001  8.77498188E-001  5.02425544E-001
Al  1.23374293E-001  7.52488417E-001  6.26269891E-001
Al  2.44034279E-003  8.77491312E-001  6.25009686E-001
Al  -1.72090373E-003  7.51028253E-001  7.52064441E-001
Al  1.25043136E-001  8.74913204E-001  7.50018122E-001
Al  1.24657765E-001  7.49982491E-001  8.74637186E-001
Al  7.84716032E-005  8.73656181E-001  8.74234108E-001
Al  2.51456275E-001  -9.26160636E-004  1.19761680E-003
Al  3.74126486E-001  1.22615225E-001  -3.59215818E-005
Al  3.76070307E-001  1.58615527E-003  1.22578571E-001
Al  2.49897314E-001  1.23035750E-001  1.25029264E-001
Al  2.52375429E-001  5.93602946E-004  2.50044569E-001
Al  3.74834494E-001  1.24978778E-001  2.50808119E-001
Al  3.74981323E-001  3.66081408E-004  3.74981850E-001
Al  2.49915945E-001  1.24954413E-001  3.74708696E-001
Al  2.49661791E-001  -4.73614613E-005  4.97673033E-001
Al  3.74248373E-001  1.25115603E-001  5.01180651E-001
Al  3.73262744E-001  -1.63720837E-003  6.25710876E-001
Al  2.47673932E-001  1.27486325E-001  6.27135854E-001
Al  2.51438475E-001  2.31335058E-003  7.50827713E-001
Al  3.74136195E-001  1.22772775E-001  7.49870598E-001
Al  3.76864295E-001  -1.38923811E-003  8.74978261E-001
Al  2.51591485E-001  1.26137671E-001  8.75822863E-001
Al  2.50650281E-001  2.47677864E-001  2.29003799E-004
Al  3.75764147E-001  3.72841390E-001  -4.75967913E-004
Al  3.74287398E-001  2.50018312E-001  1.24982398E-001
Al  2.49982658E-001  3.73222194E-001  1.23597472E-001
Al  2.51009384E-001  2.51788292E-001  2.50499691E-001
Al  3.76705535E-001  3.75068626E-001  2.50043361E-001
Al  3.74021341E-001  2.47846988E-001  3.75141851E-001
Al  2.49572819E-001  3.77491466E-001  3.73633364E-001
Al  2.51305526E-001  2.49791897E-001  5.00583962E-001
Al  3.73262879E-001  3.76778236E-001  4.99431431E-001
Al  3.75035255E-001  2.47995415E-001  6.24919137E-001
Al  2.48650852E-001  3.74962297E-001  6.24668889E-001
Al  2.48762314E-001  2.51358800E-001  7.49991590E-001
Al  3.75023351E-001  3.72597464E-001  7.48505906E-001
Al  3.75157537E-001  2.50118747E-001  8.75467515E-001
Al  2.48789355E-001  3.75451926E-001  8.73389401E-001
Al  2.49069064E-001  4.99929676E-001  -2.32788115E-003
Al  3.75789104E-001  6.24727631E-001  -9.24268048E-004
Al  3.76227482E-001  5.02353160E-001  1.27481463E-001
Al  2.51999414E-001  6.26887835E-001  1.27339595E-001
Al  2.50762094E-001  5.00047992E-001  2.50067663E-001
Al  3.73025555E-001  6.26707848E-001  2.50008543E-001
Al  3.75316046E-001  4.99963528E-001  3.73641406E-001
Al  2.48900782E-001  6.25831545E-001  3.74977713E-001
Al  2.52120710E-001  4.99475786E-001  5.00232809E-001
Al  3.74172014E-001  6.26871931E-001  4.97544998E-001
Al  3.74185772E-001  5.00088358E-001  6.25282898E-001
Al  2.51600692E-001  6.22831169E-001  6.25338267E-001
Al  2.48331569E-001  4.99951945E-001  7.51023047E-001
Al  3.73406139E-001  6.27385155E-001  7.49976582E-001
Al  3.75971193E-001  5.00256702E-001  8.76704355E-001
Al  2.48049454E-001  6.26460374E-001  8.75231479E-001
Al  2.47952543E-001  7.47587462E-001  -2.47399015E-003
Al  3.74232869E-001  8.72541554E-001  -2.34683152E-003
Al  3.74990715E-001  7.48772709E-001  1.24952808E-001
Al  2.48933596E-001  8.74616072E-001  1.25008775E-001
Al  2.47524948E-001  7.50105623E-001  2.49947534E-001
Al  3.75476451E-001  8.77249057E-001  2.49060981E-001
Al  3.74891905E-001  7.49792926E-001  3.76715857E-001
Al  2.51730220E-001  8.74965881E-001  3.77238944E-001
Al  2.51988710E-001  7.50018700E-001  4.99700575E-001
Al  3.73228317E-001  8.75559819E-001  4.99938218E-001
Al  3.74919626E-001  7.49185139E-001  6.25033595E-001
Al  2.50023554E-001  8.73307768E-001  6.24911853E-001
Al  2.50178045E-001  7.50174603E-001  7.50084348E-001
Al  3.77028503E-001  8.75116045E-001  7.51470865E-001
Al  3.74991450E-001  7.50960011E-001  8.77057809E-001
Al  2.50031878E-001  8.77082137E-001  8.74298696E-001
Al  5.01417948E-001  -1.41396649E-004  1.99297850E-004
Al  6.24991512E-001  1.24991198E-001  8.93639675E-006
Al  6.25026813E-001  8.61354919E-004  1.25085092E-001
Al  5.00115894E-001  1.26323979E-001  1.25008372E-001
Al  4.97518534E-001  8.39086368E-006  2.48891035E-001
Al  6.25692582E-001  1.26793506E-001  2.49814639E-001
Al  6.25287331E-001  -2.24644611E-003  3.74737469E-001
Al  4.97543758E-001  1.25900820E-001  3.74752741E-001
Al  5.00095932E-001  -5.10610820E-004  5.01909438E-001
Al  6.24982656E-001  1.24990863E-001  4.99936777E-001
Al  6.27496599E-001  -2.49984608E-003  6.27026783E-001
Al  5.00516677E-001  1.24959340E-001  6.25009261E-001
Al  4.99945415E-001  -1.89160722E-005  7.50207345E-001
Al  6.25018709E-001  1.25139710E-001  7.51794143E-001
Al  6.25028113E-001  7.17037842E-004  8.76793336E-001
Al  5.00092137E-001  1.22789104E-001  8.75017889E-001
Al  5.00865495E-001  2.50979106E-001  -1.74173739E-004
Al  6.24613101E-001  3.72504118E-001  5.10394224E-004
Al  6.24964760E-001  2.47828399E-001  1.27382569E-001
Al  5.00008577E-001  3.75008406E-001  1.26660719E-001
Al  5.00148175E-001  2.52174815E-001  2.49910140E-001
Al  6.25021132E-001  3.72634259E-001  2.50153052E-001
Al  6.25018169E-001  2.50018130E-001  3.75186690E-001
Al  4.98593986E-001  3.72600416E-001  3.74480858E-001
Al  5.01102001E-001  2.52146762E-001  5.00999431E-001
Al  6.23890455E-001  3.75018151E-001  4.99952696E-001
Al  6.24959813E-001  2.49241743E-001  6.27322735E-001
Al  5.00547884E-001  3.76910773E-001  6.27301204E-001
Al  4.99563202E-001  2.50270018E-001  7.49945996E-001
Al  6.24962176E-001  3.76960153E-001  7.50025722E-001
Al  6.24905748E-001  2.49718869E-001  8.75305510E-001
Al  5.00095830E-001  3.75800716E-001  8.75886840E-001
Al  5.01073473E-001  4.99991482E-001  6.95713490E-004
Al  6.24886740E-001  6.24981326E-001  9.13387267E-005
Al  6.22591234E-001  4.99828422E-001  1.25065542E-001
Al  5.00058300E-001  6.26874798E-001  1.24945469E-001
Al  5.00708866E-001  4.97592781E-001  2.49743094E-001
Al  6.24881734E-001  6.25586484E-001  2.47533839E-001
Al  6.22802167E-001  4.99871091E-001  3.74931263E-001
Al  4.98115053E-001  6.25065028E-001  3.74991262E-001
Al  5.00457230E-001  4.99745704E-001  5.00019536E-001
Al  6.22529951E-001  6.26802090E-001  4.99009888E-001
Al  6.25043745E-001  4.97710394E-001  6.24537332E-001
Al  4.99931510E-001  6.25024512E-001  6.22977526E-001
Al  5.02424343E-001  4.97501674E-001  7.50741692E-001
Al  6.25019185E-001  6.25119154E-001  7.50470536E-001
Al  6.26642871E-001  4.99469496E-001  8.76529356E-001
Al  5.01917424E-001  6.25829139E-001  8.73261282E-001
Al  5.01109054E-001  7.51874524E-001  -2.27355990E-003
Al  6.24789336E-001  8.73785261E-001  -2.40844608E-003
Al  6.24442735E-001  7.50361954E-001  1.23554448E-001
Al  4.99843788E-001  8.75786005E-001  1.25898744E-001
Al  5.02327379E-001  7.50843606E-001  2.51022865E-001
Al  6.24901969E-001  8.75078219E-001  2.49128414E-001
Al  6.24914752E-001  7.52038874E-001  3.73620228E-001
Al  4.99917216E-001  8.72822760E-001  3.73611674E-001
Al  5.01895324E-001  7.50146653E-001  4.97903070E-001
Al  6.27092459E-001  8.74579125E-001  5.00018187E-001
Al  6.24853846E-001  7.47593901E-001  6.25063504E-001
Al  5.01651355E-001  8.74908565E-001  6.24673249E-001
Al  4.99357910E-001  7.51926903E-001  7.50033052E-001
Al  6.26323627E-001  8.73555957E-001  7.49066403E-001
Al  6.25769864E-001  7.50021458E-001  8.74867990E-001
Al  5.02494374E-001  8.73554459E-001  8.73634867E-001
Al  7.48517451E-001  1.79947195E-004  1.95167286E-005
Al  8.74311798E-001  1.25008385E-001  2.41997987E-003
Al  8.73191917E-001  -2.11151697E-003  1.26581877E-001
Al  7.50029753E-001  1.26724639E-001  1.24298826E-001
Al  7.49971414E-001  8.53369048E-005  2.49648051E-001
Al  8.73170057E-001  1.24990612E-001  2.51863376E-001
Al  8.74851298E-001  1.75624621E-004  3.72734708E-001
Al  7.49943988E-001  1.24977597E-001  3.74959723E-001
Al  7.48203475E-001  -1.81977362E-005  4.99547222E-001
Al  8.75160163E-001  1.26310430E-001  4.99919778E-001
Al  8.73139705E-001  -5.32037659E-004  6.26550046E-001
Al  7.47565104E-001  1.24778869E-001  6.26549259E-001
Al  7.51322959E-001  -8.77691973E-004  7.47647066E-001
Al  8.72573056E-001  1.25159776E-001  7.47906794E-001
Al  8.73510934E-001  1.36439948E-004  8.75018003E-001
Al  7.50020566E-001  1.23594282E-001  8.76099878E-001
Al  7.51240230E-001  2.49816616E-001  -2.60761077E-004
Al  8.72783322E-001  3.72687133E-001  -2.09805867E-004
Al  8.73376018E-001  2.51497629E-001  1.25280219E-001
Al  7.50895788E-001  3.74850903E-001  1.24803887E-001
Al  7.50602188E-001  2.50408213E-001  2.50435929E-001
Al  8.73195675E-001  3.76363655E-001  2.52330593E-001
Al  8.72573415E-001  2.50018755E-001  3.75250524E-001
Al  7.52499262E-001  3.72526343E-001  3.73763871E-001
Al  7.48500665E-001  2.51899591E-001  5.00167383E-001
Al  8.72748512E-001  3.76263341E-001  4.99977343E-001
Al  8.76124443E-001  2.47840848E-001  6.27318775E-001
Al  7.50356771E-001  3.77499975E-001  6.22502931E-001
Al  7.52465830E-001  2.49904690E-001  7.48939017E-001
Al  8.74241995E-001  3.75017955E-001  7.49573561E-001
Al  8.75008404E-001  2.51303046E-001  8.74768843E-001
Al  7.50188098E-001  3.75051097E-001  8.75864029E-001
Al  7.50008440E-001  4.99583920E-001  -8.58136486E-006
Al  8.75083088E-001  6.26827544E-001  1.84021446E-005
Al  8.75087474E-001  5.01641153E-001  1.26836154E-001
Al  7.49728899E-001  6.24981856E-001  1.24391477E-001
Al  7.50018335E-001  5.01207889E-001  2.48396238E-001
Al  8.75230226E-001  6.24929354E-001  2.50018519E-001
Al  8.76675123E-001  5.00262260E-001  3.73836152E-001
Al  7.48911253E-001  6.26037615E-001  3.74105911E-001
Al  7.47553263E-001  5.02477627E-001  5.00703629E-001
Al  8.72554238E-001  6.26442701E-001  5.01032039E-001
Al  8.75019638E-001  4.99945100E-001  6.25891840E-001
Al  7.48331811E-001  6.22962848E-001  6.27147639E-001
Al  7.49745604E-001  4.99991265E-001  7.49216381E-001
Al  8.77478078E-001  6.25391349E-001  7.49431410E-001
Al  8.74277002E-001  5.00017565E-001  8.74941531E-001
Al  7.49672087E-001  6.25058089E-001  8.77479622E-001
Al  7.51910574E-001  7.49887970E-001  2.48703183E-003
Al  8.72738441E-001  8.73551606E-001  -2.29052092E-003
Al  8.75162616E-001  7.49981399E-001  1.25365606E-001
Al  7.49017964E-001  8.75893007E-001  1.24974550E-001
Al  7.50299250E-001  7.51856222E-001  2.49963128E-001
Al  8.74560984E-001  8.76274771E-001  2.49857494E-001
Al  8.73750923E-001  7.50207132E-001  3.75658898E-001
Al  7.51093708E-001  8.74938467E-001  3.73471852E-001
Al  7.52499993E-001  7.51885174E-001  5.02017865E-001
Al  8.74868539E-001  8.74214193E-001  5.00928115E-001
Al  8.74931197E-001  7.52472731E-001  6.24713575E-001
Al  7.50008919E-001  8.75019348E-001  6.25027138E-001
Al  7.49978666E-001  7.50008993E-001  7.50030929E-001
Al  8.74965079E-001  8.76014168E-001  7.47531765E-001
Al  8.76695777E-001  7.48107447E-001  8.77385460E-001
Al  7.49761447E-001  8.74931337E-001  8.74526671E-001
K_POINTS automatic
2 2 2 1 1 1
