&CONTROL
restart_mode = 'from_scratch',
calculation = 'scf',
outdir = '/gpfs/bb/bxp912/scratch',
pseudo_dir = '/gpfs/bb/bxp912/pseudopotentials',
prefix = '2.48000000E-001',
etot_conv_thr = 1.00000000E-007,
forc_conv_thr = 1.00000000E-007,
nstep = 200,
tprnfor = .true.,
tstress = .true.,
disk_io = 'low',
/
&SYSTEM
ibrav = 14,
celldm(1) = 3.05001797E+001,
celldm(2) = 1.00000000E+000,
celldm(3) = 1.00000000E+000,
celldm(4) = 0.00000000E+000,
celldm(5) = 0.00000000E+000,
celldm(6) = 0.00000000E+000,
nat = 256,
ntyp = 1,
ecutwfc = 35,
ecutrho = 208,
occupations = 'smearing',
smearing = 'mv',
degauss = 5.00000007E-002,
/
&ELECTRONS
diagonalization = 'david',
mixing_mode = plain,
mixing_beta = 6.99999988E-001,
conv_thr = 1.00000000E-007,
/
&IONS
ion_dynamics = 'bfgs',
/
&CELL
cell_dynamics = 'bfgs',
press = 0.00000000E+000,
cell_factor = 2.00000000E+000,
/
ATOMIC_SPECIES
Al  2.69815390E+001  Al.pbe-n-kjpaw_psl.0.1.UPF
ATOMIC_POSITIONS crystal
Al  -1.73569338E-005  2.26025217E-003  -2.36400060E-003
Al  1.26764156E-001  1.25955548E-001  -3.29482546E-005
Al  1.25699737E-001  -8.62036646E-005  1.24801739E-001
Al  2.46871503E-003  1.26484787E-001  1.24561568E-001
Al  2.17554432E-003  2.47422482E-003  2.48412658E-001
Al  1.25274163E-001  1.27261819E-001  2.52465097E-001
Al  1.27275470E-001  1.50630897E-003  3.77275063E-001
Al  2.02026683E-003  1.24981073E-001  3.77493811E-001
Al  1.02377030E-003  5.36393911E-005  5.00208985E-001
Al  1.24938625E-001  1.24089172E-001  5.00859037E-001
Al  1.24550297E-001  -3.18548615E-005  6.24429192E-001
Al  1.84144182E-005  1.24609984E-001  6.25126082E-001
Al  9.69574071E-004  -2.44397681E-003  7.52471878E-001
Al  1.24331760E-001  1.22682671E-001  7.50875449E-001
Al  1.25103499E-001  2.03607778E-004  8.77324671E-001
Al  -1.10345303E-003  1.24523635E-001  8.73461970E-001
Al  -1.60232100E-004  2.48692219E-001  1.69455503E-004
Al  1.23920841E-001  3.74981872E-001  2.34976858E-005
Al  1.25236991E-001  2.47658248E-001  1.25024984E-001
Al  1.66460880E-004  3.73925623E-001  1.25018692E-001
Al  1.13867025E-004  2.51517925E-001  2.52472208E-001
Al  1.26927336E-001  3.73140405E-001  2.49840167E-001
Al  1.24715732E-001  2.50018139E-001  3.75018302E-001
Al  -1.36326457E-004  3.75086733E-001  3.74349125E-001
Al  1.89469009E-003  2.50017004E-001  5.01681876E-001
Al  1.24964308E-001  3.75265958E-001  5.02075994E-001
Al  1.27438636E-001  2.52494180E-001  6.25648945E-001
Al  -2.10855660E-003  3.72729343E-001  6.24881794E-001
Al  -8.80561399E-004  2.51121423E-001  7.48515110E-001
Al  1.25174306E-001  3.73370849E-001  7.50107857E-001
Al  1.23460986E-001  2.50018359E-001  8.75287101E-001
Al  -2.41189019E-003  3.75058922E-001  8.72715949E-001
Al  1.88093649E-005  4.99789942E-001  2.01489922E-003
Al  1.24810953E-001  6.23189755E-001  -2.51276097E-004
Al  1.25008821E-001  5.01305051E-001  1.26679439E-001
Al  1.70965781E-003  6.23218650E-001  1.24057347E-001
Al  1.09816410E-003  5.00076968E-001  2.52470488E-001
Al  1.25844216E-001  6.25008496E-001  2.49189348E-001
Al  1.25420916E-001  4.99567203E-001  3.77446978E-001
Al  2.91339519E-004  6.23795664E-001  3.76942379E-001
Al  -1.53435464E-003  5.00008381E-001  5.02483520E-001
Al  1.25019255E-001  6.25230966E-001  5.01872800E-001
Al  1.26962158E-001  4.99300834E-001  6.26124769E-001
Al  -8.03623263E-005  6.23443203E-001  6.24981354E-001
Al  2.49835255E-003  5.00298960E-001  7.51894493E-001
Al  1.23734040E-001  6.24357803E-001  7.49154051E-001
Al  1.27000915E-001  5.02174320E-001  8.76074252E-001
Al  1.49051679E-003  6.25574377E-001  8.74991484E-001
Al  -1.18928190E-003  7.50031263E-001  -8.06951747E-005
Al  1.27449908E-001  8.77456480E-001  -5.04594648E-005
Al  1.26221218E-001  7.49948630E-001  1.27486730E-001
Al  2.41132884E-003  8.74903549E-001  1.25475128E-001
Al  -2.47279699E-003  7.48082916E-001  2.50025286E-001
Al  1.22777224E-001  8.74792389E-001  2.50193196E-001
Al  1.25057359E-001  7.50041364E-001  3.76606720E-001
Al  -5.36462798E-004  8.77486996E-001  3.72889209E-001
Al  -1.20602173E-004  7.47515110E-001  4.99194236E-001
Al  1.24960435E-001  8.74476969E-001  5.00777645E-001
Al  1.24469192E-001  7.51787766E-001  6.23048446E-001
Al  4.00894669E-005  8.76147105E-001  6.22593045E-001
Al  -2.49833656E-003  7.50018115E-001  7.50243562E-001
Al  1.26494939E-001  8.74740900E-001  7.50126619E-001
Al  1.23519570E-001  7.49511055E-001  8.74358237E-001
Al  -3.97577597E-005  8.76782756E-001  8.72960220E-001
Al  2.50800058E-001  -1.74648695E-003  9.10135655E-004
Al  3.76901474E-001  1.24967066E-001  2.25596957E-004
Al  3.74858850E-001  2.49791111E-003  1.22750632E-001
Al  2.50373846E-001  1.25044569E-001  1.24586554E-001
Al  2.49981122E-001  -1.37336774E-003  2.50009572E-001
Al  3.77055235E-001  1.24991413E-001  2.50211395E-001
Al  3.74781354E-001  1.92165314E-003  3.74549386E-001
Al  2.50283508E-001  1.24736669E-001  3.74510350E-001
Al  2.49219877E-001  -1.92654582E-003  5.01115180E-001
Al  3.75033508E-001  1.23111210E-001  4.99877132E-001
Al  3.72820633E-001  2.06788396E-003  6.26358258E-001
Al  2.48152491E-001  1.26006632E-001  6.27360768E-001
Al  2.47782016E-001  -9.75365528E-006  7.49187556E-001
Al  3.73751831E-001  1.26079786E-001  7.50023396E-001
Al  3.73693925E-001  -2.47527805E-003  8.73187410E-001
Al  2.52217261E-001  1.26559098E-001  8.75008423E-001
Al  2.51449045E-001  2.48043911E-001  2.94365031E-005
Al  3.73182550E-001  3.75018117E-001  -1.69178151E-003
Al  3.75081546E-001  2.49952960E-001  1.24860725E-001
Al  2.51227630E-001  3.76758772E-001  1.22631042E-001
Al  2.49376055E-001  2.49935128E-001  2.48100460E-001
Al  3.77313772E-001  3.74991072E-001  2.50066598E-001
Al  3.75660560E-001  2.50913069E-001  3.75017978E-001
Al  2.47502463E-001  3.74968111E-001  3.75018692E-001
Al  2.47531875E-001  2.48253459E-001  4.98439025E-001
Al  3.73916879E-001  3.77424006E-001  4.98665824E-001
Al  3.74323697E-001  2.51569298E-001  6.24394345E-001
Al  2.49084227E-001  3.74981438E-001  6.25475037E-001
Al  2.50044423E-001  2.47562795E-001  7.51425719E-001
Al  3.76466250E-001  3.74199823E-001  7.50241378E-001
Al  3.74908099E-001  2.48233326E-001  8.75065808E-001
Al  2.49260540E-001  3.73188703E-001  8.74922588E-001
Al  2.48450283E-001  5.02499860E-001  2.35427940E-003
Al  3.73474005E-001  6.25675387E-001  -1.88182191E-005
Al  3.75018556E-001  5.00018476E-001  1.25133663E-001
Al  2.50119411E-001  6.26776341E-001  1.24084119E-001
Al  2.47690482E-001  4.99815482E-001  2.50386541E-001
Al  3.72500014E-001  6.22586901E-001  2.49923420E-001
Al  3.74311910E-001  4.99863914E-001  3.77371227E-001
Al  2.49783383E-001  6.25034297E-001  3.74258009E-001
Al  2.52464594E-001  5.02311953E-001  5.00910279E-001
Al  3.73187038E-001  6.23552416E-001  4.99991235E-001
Al  3.74975555E-001  5.01590449E-001  6.27163133E-001
Al  2.51586327E-001  6.24982327E-001  6.26387075E-001
Al  2.51627520E-001  5.01171510E-001  7.50020111E-001
Al  3.74878614E-001  6.25235387E-001  7.49720272E-001
Al  3.75432552E-001  4.97637081E-001  8.77281226E-001
Al  2.50009668E-001  6.24980432E-001  8.74941794E-001
Al  2.52387319E-001  7.51131069E-001  2.44841964E-003
Al  3.73568296E-001  8.75236891E-001  2.15970938E-005
Al  3.72691074E-001  7.50701146E-001  1.25105245E-001
Al  2.49950765E-001  8.77496143E-001  1.27463218E-001
Al  2.49559235E-001  7.52454659E-001  2.52487581E-001
Al  3.74926472E-001  8.74764029E-001  2.51254211E-001
Al  3.76408153E-001  7.49957815E-001  3.75333706E-001
Al  2.48388674E-001  8.74105342E-001  3.76480046E-001
Al  2.50226065E-001  7.49701180E-001  5.00842175E-001
Al  3.76281989E-001  8.75809199E-001  5.01352158E-001
Al  3.74735363E-001  7.47571870E-001  6.24799254E-001
Al  2.47686447E-001  8.77105186E-001  6.22524295E-001
Al  2.50018503E-001  7.49685265E-001  7.50486637E-001
Al  3.74057470E-001  8.72500576E-001  7.50158044E-001
Al  3.77438639E-001  7.50018719E-001  8.72869257E-001
Al  2.47867252E-001  8.77492589E-001  8.73190360E-001
Al  5.02107451E-001  -2.30565222E-005  2.50459842E-004
Al  6.25217679E-001  1.24768213E-001  3.73082871E-005
Al  6.24990900E-001  2.48351836E-003  1.27148126E-001
Al  5.00031660E-001  1.25121283E-001  1.23758230E-001
Al  5.01450350E-001  1.79151647E-003  2.49300084E-001
Al  6.23158860E-001  1.25111069E-001  2.49104340E-001
Al  6.24981891E-001  2.58009952E-004  3.75031053E-001
Al  5.00430106E-001  1.22841755E-001  3.74981177E-001
Al  4.97521875E-001  2.48405065E-003  4.98225897E-001
Al  6.25058549E-001  1.25027943E-001  5.00018635E-001
Al  6.26830983E-001  9.68955413E-004  6.23703420E-001
Al  4.99952205E-001  1.25513905E-001  6.23939960E-001
Al  5.00086722E-001  -2.45611378E-003  7.47669608E-001
Al  6.24594696E-001  1.25018108E-001  7.49066868E-001
Al  6.24690128E-001  -1.71656230E-003  8.74241272E-001
Al  4.98556741E-001  1.25596546E-001  8.73662328E-001
Al  4.99575150E-001  2.49963681E-001  -1.60380647E-003
Al  6.25298759E-001  3.76856246E-001  -1.19955964E-003
Al  6.24981163E-001  2.47593168E-001  1.26505243E-001
Al  5.00019063E-001  3.74981524E-001  1.24888338E-001
Al  4.99568151E-001  2.50018138E-001  2.48138731E-001
Al  6.25231218E-001  3.73965464E-001  2.49921629E-001
Al  6.25544014E-001  2.52499621E-001  3.72522559E-001
Al  4.99801005E-001  3.73048818E-001  3.74980288E-001
Al  5.00829940E-001  2.49324096E-001  4.99865845E-001
Al  6.27363563E-001  3.74597146E-001  5.02212982E-001
Al  6.25246233E-001  2.49976354E-001  6.26443558E-001
Al  5.00008964E-001  3.74622084E-001  6.24938313E-001
Al  4.98109083E-001  2.49816734E-001  7.50504097E-001
Al  6.27419484E-001  3.73568454E-001  7.51058481E-001
Al  6.25074756E-001  2.49764438E-001  8.73210899E-001
Al  5.00084214E-001  3.73582520E-001  8.76619407E-001
Al  5.00025317E-001  4.99990847E-001  1.61216547E-004
Al  6.25019440E-001  6.23756353E-001  2.33911550E-003
Al  6.25841866E-001  4.99991619E-001  1.24544367E-001
Al  4.99981570E-001  6.26150931E-001  1.23821273E-001
Al  5.02009374E-001  4.99850957E-001  2.48012732E-001
Al  6.25200904E-001  6.25500272E-001  2.50380720E-001
Al  6.25019687E-001  5.00407379E-001  3.75377667E-001
Al  5.00068087E-001  6.23843084E-001  3.74811277E-001
Al  4.99471997E-001  4.97913316E-001  5.00008410E-001
Al  6.26179347E-001  6.24514394E-001  4.97518643E-001
Al  6.25127250E-001  5.00453639E-001  6.24538539E-001
Al  5.02017290E-001  6.25151938E-001  6.25763012E-001
Al  5.01229356E-001  4.97540949E-001  7.49771254E-001
Al  6.24862912E-001  6.24847608E-001  7.50047562E-001
Al  6.24729764E-001  4.97682949E-001  8.77295223E-001
Al  5.00041694E-001  6.27441053E-001  8.77260845E-001
Al  5.00235654E-001  7.51817466E-001  -3.30473207E-004
Al  6.24967460E-001  8.75894664E-001  5.18601856E-005
Al  6.24801113E-001  7.47623418E-001  1.25254681E-001
Al  5.01567214E-001  8.76851244E-001  1.22500525E-001
Al  5.00008510E-001  7.50335948E-001  2.49817885E-001
Al  6.25351565E-001  8.73549491E-001  2.47895697E-001
Al  6.24894142E-001  7.49981529E-001  3.75022708E-001
Al  4.99658640E-001  8.73878976E-001  3.74731768E-001
Al  5.00018471E-001  7.52006469E-001  4.99027143E-001
Al  6.22927420E-001  8.75248846E-001  4.99776305E-001
Al  6.25101989E-001  7.49968367E-001  6.23054669E-001
Al  4.98909482E-001  8.75018112E-001  6.25683230E-001
Al  4.97760845E-001  7.50709728E-001  7.47521097E-001
Al  6.23992588E-001  8.74911536E-001  7.50020043E-001
Al  6.26174598E-001  7.52411108E-001  8.74490555E-001
Al  4.99916951E-001  8.74979857E-001  8.75591521E-001
Al  7.49991551E-001  -3.92455106E-004  -8.95680042E-006
Al  8.73482676E-001  1.24940683E-001  2.44689569E-003
Al  8.76841912E-001  1.90741487E-005  1.23923793E-001
Al  7.50838466E-001  1.25009020E-001  1.22561423E-001
Al  7.49981883E-001  2.16632894E-003  2.52452580E-001
Al  8.72507285E-001  1.25615122E-001  2.52284287E-001
Al  8.76101187E-001  -9.55497125E-004  3.75266517E-001
Al  7.49634746E-001  1.26192191E-001  3.72981839E-001
Al  7.50214309E-001  1.86037160E-005  5.00570240E-001
Al  8.75124685E-001  1.25199829E-001  4.99658721E-001
Al  8.74799444E-001  1.95565405E-003  6.24655953E-001
Al  7.49948511E-001  1.25105812E-001  6.25081568E-001
Al  7.49612762E-001  -1.39546677E-003  7.49982051E-001
Al  8.75039324E-001  1.24290854E-001  7.51377208E-001
Al  8.75063639E-001  3.23176018E-004  8.74910282E-001
Al  7.47526892E-001  1.27342909E-001  8.72739334E-001
Al  7.49990895E-001  2.50008410E-001  -1.47032735E-003
Al  8.75978965E-001  3.74321510E-001  1.92542614E-003
Al  8.74670920E-001  2.51579835E-001  1.24247927E-001
Al  7.49990152E-001  3.74794648E-001  1.24991533E-001
Al  7.49954278E-001  2.50373942E-001  2.52204950E-001
Al  8.77483919E-001  3.75177348E-001  2.50259881E-001
Al  8.77298447E-001  2.47503476E-001  3.74896293E-001
Al  7.52499452E-001  3.75019578E-001  3.74981881E-001
Al  7.51280244E-001  2.50602386E-001  4.99294967E-001
Al  8.73681567E-001  3.74978506E-001  4.99742958E-001
Al  8.75009079E-001  2.47515428E-001  6.24631776E-001
Al  7.52445467E-001  3.74990970E-001  6.22511878E-001
Al  7.50494838E-001  2.49693119E-001  7.50764349E-001
Al  8.77499063E-001  3.75068606E-001  7.49945443E-001
Al  8.77497476E-001  2.50022888E-001  8.72895018E-001
Al  7.49658526E-001  3.76423604E-001  8.75712953E-001
Al  7.50020676E-001  4.98374812E-001  3.56337594E-005
Al  8.76874675E-001  6.24115492E-001  4.89528470E-004
Al  8.75824053E-001  4.98095338E-001  1.25695417E-001
Al  7.47537691E-001  6.23886118E-001  1.25008689E-001
Al  7.51826955E-001  5.00120435E-001  2.49849031E-001
Al  8.74981743E-001  6.24990794E-001  2.50566092E-001
Al  8.74695364E-001  5.00009037E-001  3.77497673E-001
Al  7.48984606E-001  6.24623230E-001  3.72762594E-001
Al  7.50118618E-001  4.97526391E-001  4.97939425E-001
Al  8.77391234E-001  6.23175454E-001  5.00018113E-001
Al  8.75035336E-001  5.00094423E-001  6.25661137E-001
Al  7.50079949E-001  6.24729223E-001  6.22910207E-001
Al  7.50018361E-001  5.01317784E-001  7.48851388E-001
Al  8.72615854E-001  6.25061034E-001  7.49980147E-001
Al  8.75595802E-001  5.01698936E-001  8.76980467E-001
Al  7.51290356E-001  6.25737687E-001  8.74176082E-001
Al  7.50312303E-001  7.48855102E-001  -2.12826600E-003
Al  8.77218699E-001  8.72764521E-001  -4.23353123E-004
Al  8.73887179E-001  7.49472184E-001  1.27258895E-001
Al  7.49913299E-001  8.72706927E-001  1.22978442E-001
Al  7.51117971E-001  7.49826073E-001  2.50968666E-001
Al  8.75205826E-001  8.72777240E-001  2.50399219E-001
Al  8.74946776E-001  7.50333621E-001  3.75186463E-001
Al  7.50769981E-001  8.76091352E-001  3.74714551E-001
Al  7.51293452E-001  7.49848480E-001  5.01714415E-001
Al  8.75554974E-001  8.74981615E-001  4.99979773E-001
Al  8.73151785E-001  7.50324824E-001  6.24981314E-001
Al  7.50008524E-001  8.74185565E-001  6.22752036E-001
Al  7.50423460E-001  7.49517000E-001  7.50522577E-001
Al  8.75009422E-001  8.74935629E-001  7.49979809E-001
Al  8.75075006E-001  7.52443083E-001  8.73484591E-001
Al  7.50032679E-001  8.73689849E-001  8.72595939E-001
K_POINTS automatic
2 2 2 1 1 1
