&CONTROL
restart_mode = 'from_scratch',
calculation = 'scf',
outdir = '/gpfs/bb/bxp912/scratch',
pseudo_dir = '/gpfs/bb/bxp912/pseudopotentials',
prefix = '2.48000000E-001',
etot_conv_thr = 1.00000000E-007,
forc_conv_thr = 1.00000000E-007,
nstep = 200,
tprnfor = .true.,
tstress = .true.,
disk_io = 'low',
/
&SYSTEM
ibrav = 14,
celldm(1) = 3.05001797E+001,
celldm(2) = 1.00000000E+000,
celldm(3) = 1.00000000E+000,
celldm(4) = 0.00000000E+000,
celldm(5) = 0.00000000E+000,
celldm(6) = 0.00000000E+000,
nat = 256,
ntyp = 1,
ecutwfc = 35,
ecutrho = 208,
occupations = 'smearing',
smearing = 'mv',
degauss = 5.00000007E-002,
/
&ELECTRONS
diagonalization = 'david',
mixing_mode = plain,
mixing_beta = 6.99999988E-001,
conv_thr = 1.00000000E-007,
/
&IONS
ion_dynamics = 'bfgs',
/
&CELL
cell_dynamics = 'bfgs',
press = 0.00000000E+000,
cell_factor = 2.00000000E+000,
/
ATOMIC_SPECIES
Al  2.69815390E+001  Al.pbe-n-kjpaw_psl.0.1.UPF
ATOMIC_POSITIONS crystal
Al  -2.40264589E-003  -1.87005420E-005  1.54284917E-003
Al  1.25008622E-001  1.25118819E-001  2.95236228E-004
Al  1.23549159E-001  -1.35662315E-003  1.26043646E-001
Al  9.14290130E-004  1.23807416E-001  1.25280558E-001
Al  2.23509697E-003  1.22638472E-004  2.48247639E-001
Al  1.25309632E-001  1.22783662E-001  2.51358028E-001
Al  1.27245808E-001  8.52076809E-005  3.73312220E-001
Al  7.48341928E-004  1.24506775E-001  3.75817178E-001
Al  -1.93253070E-003  1.54125514E-003  4.99334271E-001
Al  1.27283454E-001  1.25627295E-001  4.99491830E-001
Al  1.25141449E-001  -9.51697631E-005  6.24765377E-001
Al  2.84816196E-004  1.24420948E-001  6.23458123E-001
Al  -2.21211080E-005  1.86601912E-005  7.49910349E-001
Al  1.25034737E-001  1.22618918E-001  7.49879511E-001
Al  1.24980360E-001  -1.83245384E-004  8.74991607E-001
Al  -3.49636223E-004  1.22930131E-001  8.74734537E-001
Al  6.63370824E-005  2.49981228E-001  -3.65420574E-004
Al  1.26867143E-001  3.74776089E-001  -8.06313944E-005
Al  1.23632563E-001  2.52326928E-001  1.24981733E-001
Al  -1.41616831E-003  3.75043582E-001  1.25362253E-001
Al  1.82933579E-005  2.49991068E-001  2.49434415E-001
Al  1.26024936E-001  3.75595120E-001  2.51887125E-001
Al  1.22514576E-001  2.49014178E-001  3.76847925E-001
Al  2.37024278E-005  3.72734297E-001  3.75009495E-001
Al  -5.34122336E-005  2.51160305E-001  5.00290814E-001
Al  1.24822578E-001  3.75008449E-001  5.00060112E-001
Al  1.23388854E-001  2.49693966E-001  6.27499500E-001
Al  2.49151283E-003  3.72545632E-001  6.25018324E-001
Al  -1.86741665E-003  2.49902131E-001  7.52219470E-001
Al  1.26790136E-001  3.72510629E-001  7.50431689E-001
Al  1.25021998E-001  2.52499216E-001  8.72509860E-001
Al  1.74726665E-004  3.72566825E-001  8.72782902E-001
Al  -7.96974390E-004  4.99736463E-001  7.40871864E-004
Al  1.25553702E-001  6.24981409E-001  2.47716257E-003
Al  1.24241590E-001  4.99991566E-001  1.24302790E-001
Al  -8.78186022E-004  6.24881122E-001  1.26786818E-001
Al  2.41429151E-003  4.99904663E-001  2.48608698E-001
Al  1.27035196E-001  6.26543325E-001  2.52216929E-001
Al  1.25603271E-001  5.01569998E-001  3.77005796E-001
Al  -3.33645922E-004  6.24923559E-001  3.72674237E-001
Al  3.95352433E-005  5.00370797E-001  5.00498017E-001
Al  1.22500843E-001  6.25813018E-001  5.00084891E-001
Al  1.27497641E-001  4.99869540E-001  6.25324886E-001
Al  3.78430035E-004  6.24341098E-001  6.25993129E-001
Al  -6.16147293E-004  4.98799513E-001  7.48229689E-001
Al  1.23050202E-001  6.25537827E-001  7.50008424E-001
Al  1.25935844E-001  4.99991418E-001  8.75806569E-001
Al  2.79370656E-004  6.24489065E-001  8.75023769E-001
Al  -2.10126410E-003  7.52296769E-001  7.56196100E-004
Al  1.25039594E-001  8.73975336E-001  4.01590115E-004
Al  1.24400111E-001  7.52481708E-001  1.24352494E-001
Al  -4.37876443E-004  8.75040644E-001  1.27370914E-001
Al  -8.41849684E-006  7.52454811E-001  2.50966469E-001
Al  1.27191272E-001  8.76500699E-001  2.50213451E-001
Al  1.27401795E-001  7.47523238E-001  3.76976305E-001
Al  1.77443495E-003  8.77480054E-001  3.74428214E-001
Al  2.83353821E-004  7.50178946E-001  5.00893810E-001
Al  1.24522925E-001  8.74928115E-001  4.98567255E-001
Al  1.22886673E-001  7.47546087E-001  6.26278906E-001
Al  -1.91049805E-003  8.74091518E-001  6.24129081E-001
Al  8.43680716E-006  7.50104143E-001  7.50111234E-001
Al  1.25026908E-001  8.75037376E-001  7.50031409E-001
Al  1.25506378E-001  7.49960324E-001  8.76044034E-001
Al  -6.77648923E-004  8.72575017E-001  8.75055918E-001
Al  2.51684735E-001  1.92280537E-003  -8.83494566E-005
Al  3.75237969E-001  1.24117893E-001  -7.46192875E-005
Al  3.74879995E-001  -8.41285912E-006  1.24595392E-001
Al  2.49119518E-001  1.24880990E-001  1.24981887E-001
Al  2.47869443E-001  -1.82587700E-005  2.49871566E-001
Al  3.73044307E-001  1.27384113E-001  2.50008700E-001
Al  3.74106214E-001  -5.74658918E-004  3.74755469E-001
Al  2.49832522E-001  1.24923613E-001  3.72518672E-001
Al  2.49457395E-001  2.49071411E-003  5.00498565E-001
Al  3.75154115E-001  1.22605442E-001  5.00123395E-001
Al  3.76023517E-001  2.45848098E-003  6.24981222E-001
Al  2.51350354E-001  1.24576404E-001  6.25142828E-001
Al  2.47633353E-001  3.10190090E-004  7.48801632E-001
Al  3.75019952E-001  1.24769768E-001  7.50997825E-001
Al  3.73603327E-001  -8.40131455E-005  8.75102344E-001
Al  2.50009062E-001  1.22659109E-001  8.76013312E-001
Al  2.50033221E-001  2.51936222E-001  2.49807873E-003
Al  3.74915226E-001  3.74991355E-001  7.40203212E-005
Al  3.75008371E-001  2.47569033E-001  1.24678138E-001
Al  2.50463490E-001  3.75009791E-001  1.25260578E-001
Al  2.49682780E-001  2.48494678E-001  2.49049952E-001
Al  3.72901421E-001  3.74337610E-001  2.47620372E-001
Al  3.75647342E-001  2.50563541E-001  3.77325145E-001
Al  2.49711930E-001  3.77255578E-001  3.77494178E-001
Al  2.50065265E-001  2.52467270E-001  5.01866015E-001
Al  3.73707599E-001  3.74981344E-001  4.99155481E-001
Al  3.75033698E-001  2.49706211E-001  6.25047213E-001
Al  2.50246884E-001  3.75019816E-001  6.23938443E-001
Al  2.49179038E-001  2.49970755E-001  7.47640984E-001
Al  3.73602376E-001  3.75196411E-001  7.49879974E-001
Al  3.75029179E-001  2.50008377E-001  8.75060048E-001
Al  2.48717153E-001  3.74071579E-001  8.77289499E-001
Al  2.50083780E-001  5.00126239E-001  6.70267369E-004
Al  3.75176140E-001  6.25021253E-001  -9.05829021E-005
Al  3.77299757E-001  4.98333222E-001  1.24981526E-001
Al  2.50111603E-001  6.24991397E-001  1.22994264E-001
Al  2.49981085E-001  4.99972723E-001  2.52460436E-001
Al  3.72526006E-001  6.27466814E-001  2.50008371E-001
Al  3.75258814E-001  5.00751153E-001  3.77037058E-001
Al  2.48753698E-001  6.24930982E-001  3.74956371E-001
Al  2.50758517E-001  4.99981495E-001  5.00470519E-001
Al  3.75859289E-001  6.24739679E-001  5.01754488E-001
Al  3.75185194E-001  4.99982374E-001  6.26640456E-001
Al  2.50148554E-001  6.24930377E-001  6.23985920E-001
Al  2.50281714E-001  4.97586620E-001  7.50520969E-001
Al  3.75218859E-001  6.26683022E-001  7.50120825E-001
Al  3.74813216E-001  4.99981704E-001  8.75602931E-001
Al  2.50048596E-001  6.22610911E-001  8.75035301E-001
Al  2.47505301E-001  7.52033854E-001  2.15498562E-004
Al  3.75008909E-001  8.72873587E-001  1.04494683E-003
Al  3.72500239E-001  7.52219826E-001  1.24934904E-001
Al  2.51841910E-001  8.75432082E-001  1.24600942E-001
Al  2.50097436E-001  7.50095474E-001  2.49667743E-001
Al  3.72645380E-001  8.75088924E-001  2.49991629E-001
Al  3.72545058E-001  7.50526818E-001  3.75073685E-001
Al  2.50027553E-001  8.73147854E-001  3.74957638E-001
Al  2.49958331E-001  7.48447300E-001  4.99426104E-001
Al  3.72964725E-001  8.76064631E-001  4.99895512E-001
Al  3.75809324E-001  7.50090930E-001  6.24307034E-001
Al  2.52418386E-001  8.73925216E-001  6.27480497E-001
Al  2.52456466E-001  7.50008596E-001  7.49979769E-001
Al  3.75025788E-001  8.74975961E-001  7.49509937E-001
Al  3.75072090E-001  7.48828670E-001  8.75354746E-001
Al  2.49651149E-001  8.75647867E-001  8.75049284E-001
Al  5.00285782E-001  1.11594177E-004  2.42497389E-003
Al  6.25008669E-001  1.24167596E-001  -1.07743037E-003
Al  6.25531528E-001  -2.22353023E-004  1.22584320E-001
Al  4.97541572E-001  1.25240124E-001  1.25747799E-001
Al  4.99699542E-001  2.07102153E-003  2.49963755E-001
Al  6.24970227E-001  1.25799514E-001  2.50908985E-001
Al  6.24457770E-001  2.76387250E-004  3.75304075E-001
Al  4.99942979E-001  1.24733852E-001  3.75078154E-001
Al  5.01622578E-001  8.92356138E-005  4.97595136E-001
Al  6.27430909E-001  1.24585887E-001  5.00121244E-001
Al  6.24857958E-001  5.73302043E-004  6.24902210E-001
Al  4.99521295E-001  1.26975282E-001  6.22521315E-001
Al  4.99991629E-001  -2.49787351E-003  7.50089142E-001
Al  6.24370385E-001  1.24981770E-001  7.49980016E-001
Al  6.23744242E-001  -3.77116361E-004  8.75711547E-001
Al  5.02435848E-001  1.23889787E-001  8.75318256E-001
Al  5.00341238E-001  2.51304183E-001  -2.49820001E-003
Al  6.26056622E-001  3.75381214E-001  -6.54577888E-005
Al  6.27435559E-001  2.49187644E-001  1.25356373E-001
Al  4.99219965E-001  3.72511568E-001  1.24977112E-001
Al  4.97504535E-001  2.49697304E-001  2.49202338E-001
Al  6.25026151E-001  3.76173493E-001  2.51912749E-001
Al  6.27395477E-001  2.50051153E-001  3.72626505E-001
Al  5.00052582E-001  3.76028612E-001  3.75573231E-001
Al  4.99962331E-001  2.48543678E-001  4.97865272E-001
Al  6.25808759E-001  3.74185139E-001  4.97531634E-001
Al  6.22757506E-001  2.49829064E-001  6.23441721E-001
Al  4.97579212E-001  3.76281160E-001  6.27499995E-001
Al  4.97691455E-001  2.48068307E-001  7.48064934E-001
Al  6.23512871E-001  3.76182583E-001  7.50207196E-001
Al  6.25040071E-001  2.49990261E-001  8.75255077E-001
Al  4.98954126E-001  3.74107744E-001  8.75207557E-001
Al  5.02141166E-001  4.99593287E-001  1.38450112E-003
Al  6.24122290E-001  6.24689281E-001  1.00053362E-003
Al  6.24847962E-001  4.97821218E-001  1.25048683E-001
Al  5.01554199E-001  6.22872550E-001  1.25008784E-001
Al  4.97517539E-001  4.98204257E-001  2.52255597E-001
Al  6.24062205E-001  6.27418881E-001  2.50364507E-001
Al  6.27272716E-001  4.99778127E-001  3.75030969E-001
Al  5.01275285E-001  6.24991212E-001  3.77250955E-001
Al  5.00733243E-001  5.00034778E-001  5.00919784E-001
Al  6.25512533E-001  6.26139255E-001  5.01812426E-001
Al  6.24937377E-001  5.00544906E-001  6.25110950E-001
Al  5.00955883E-001  6.27132855E-001  6.25145826E-001
Al  4.99462675E-001  5.00025015E-001  7.49772651E-001
Al  6.23606532E-001  6.23303573E-001  7.49472061E-001
Al  6.24807709E-001  5.02462333E-001  8.75721752E-001
Al  5.02009163E-001  6.26508128E-001  8.72574026E-001
Al  5.00008779E-001  7.51990858E-001  -2.30517215E-003
Al  6.27467619E-001  8.75462142E-001  -2.31321292E-003
Al  6.24263549E-001  7.48686831E-001  1.25018157E-001
Al  4.97607363E-001  8.72930466E-001  1.24798657E-001
Al  5.00045156E-001  7.50034076E-001  2.50536330E-001
Al  6.24914139E-001  8.74979211E-001  2.49880237E-001
Al  6.24950376E-001  7.48394599E-001  3.77467766E-001
Al  4.97641325E-001  8.75065859E-001  3.72586749E-001
Al  4.97927349E-001  7.49981649E-001  4.98803963E-001
Al  6.24990359E-001  8.72892478E-001  5.00740375E-001
Al  6.24110163E-001  7.49981745E-001  6.22975531E-001
Al  5.02485827E-001  8.74118873E-001  6.27023186E-001
Al  4.99577623E-001  7.49943568E-001  7.50130272E-001
Al  6.24841246E-001  8.75113866E-001  7.47505358E-001
Al  6.25210695E-001  7.48794505E-001  8.75669378E-001
Al  5.00009305E-001  8.72964825E-001  8.76303819E-001
Al  7.48695242E-001  2.09454712E-003  -1.97132789E-003
Al  8.73885683E-001  1.24991044E-001  -1.86955997E-004
Al  8.74898744E-001  -1.77624548E-003  1.24948905E-001
Al  7.49417595E-001  1.25074853E-001  1.24875836E-001
Al  7.50018187E-001  3.01010896E-005  2.49981142E-001
Al  8.74698635E-001  1.27366890E-001  2.51508391E-001
Al  8.75107348E-001  5.82833088E-004  3.75582458E-001
Al  7.50994514E-001  1.27139567E-001  3.77484478E-001
Al  7.50712898E-001  8.69400702E-004  4.99925025E-001
Al  8.74563760E-001  1.25899831E-001  5.00009184E-001
Al  8.72909236E-001  8.84974938E-006  6.25607185E-001
Al  7.50238041E-001  1.25268763E-001  6.27024527E-001
Al  7.48166295E-001  -1.98273584E-005  7.49991568E-001
Al  8.74413699E-001  1.24517262E-001  7.52035728E-001
Al  8.77458456E-001  -1.13834593E-003  8.75521232E-001
Al  7.49656807E-001  1.26331468E-001  8.74550873E-001
Al  7.50460259E-001  2.48678586E-001  1.06949526E-003
Al  8.75390051E-001  3.73814472E-001  2.23066603E-003
Al  8.75879932E-001  2.50038227E-001  1.26706399E-001
Al  7.52087978E-001  3.74991055E-001  1.23248066E-001
Al  7.50029143E-001  2.48645724E-001  2.49970683E-001
Al  8.72535173E-001  3.75935115E-001  2.49933321E-001
Al  8.74973932E-001  2.50034201E-001  3.75691201E-001
Al  7.49938298E-001  3.74981536E-001  3.74662370E-001
Al  7.50269785E-001  2.50556446E-001  4.99464329E-001
Al  8.72501819E-001  3.74901970E-001  5.00823747E-001
Al  8.74930109E-001  2.48841587E-001  6.25246379E-001
Al  7.48832222E-001  3.76604071E-001  6.24926426E-001
Al  7.51243235E-001  2.52399152E-001  7.49604813E-001
Al  8.75019748E-001  3.72584213E-001  7.52322206E-001
Al  8.73834493E-001  2.49832866E-001  8.77423593E-001
Al  7.47791132E-001  3.76517021E-001  8.75695228E-001
Al  7.49683882E-001  4.99981840E-001  -2.53058245E-004
Al  8.74068096E-001  6.24444715E-001  1.38041678E-003
Al  8.74015499E-001  5.01088923E-001  1.23148772E-001
Al  7.49850338E-001  6.23316327E-001  1.24578009E-001
Al  7.50029104E-001  4.97574808E-001  2.47671341E-001
Al  8.74975859E-001  6.22937807E-001  2.51322955E-001
Al  8.75021615E-001  5.00009032E-001  3.74257170E-001
Al  7.52483719E-001  6.24950355E-001  3.75251943E-001
Al  7.52499927E-001  4.97575890E-001  4.99844899E-001
Al  8.75059353E-001  6.27274708E-001  5.00034099E-001
Al  8.73828913E-001  4.97603265E-001  6.22783539E-001
Al  7.49335823E-001  6.25704536E-001  6.25170779E-001
Al  7.52466451E-001  5.00233816E-001  7.49972677E-001
Al  8.75537328E-001  6.26040685E-001  7.50330015E-001
Al  8.74980978E-001  4.99886742E-001  8.73958127E-001
Al  7.50179181E-001  6.27040895E-001  8.75243259E-001
Al  7.50725914E-001  7.51108989E-001  8.53270490E-006
Al  8.76880696E-001  8.73771736E-001  9.65104431E-006
Al  8.76900208E-001  7.52096137E-001  1.24227236E-001
Al  7.49975957E-001  8.75018305E-001  1.25193409E-001
Al  7.52415410E-001  7.51477982E-001  2.52477411E-001
Al  8.73898651E-001  8.74906666E-001  2.50395950E-001
Al  8.76944041E-001  7.50137374E-001  3.75059540E-001
Al  7.52499814E-001  8.74883820E-001  3.77389679E-001
Al  7.47501054E-001  7.49920825E-001  5.01538823E-001
Al  8.75126342E-001  8.75099675E-001  5.02236953E-001
Al  8.75018914E-001  7.51269110E-001  6.26985302E-001
Al  7.51104044E-001  8.75729521E-001  6.25240555E-001
Al  7.49981108E-001  7.52454292E-001  7.47500015E-001
Al  8.77493096E-001  8.75041163E-001  7.49354026E-001
Al  8.75279828E-001  7.51930941E-001  8.74990900E-001
Al  7.51271593E-001  8.74960870E-001  8.74739923E-001
K_POINTS automatic
2 2 2 1 1 1
