&CONTROL
restart_mode = 'from_scratch',
calculation = 'scf',
outdir = '/gpfs/bb/bxp912/scratch',
pseudo_dir = '/gpfs/bb/bxp912/pseudopotentials',
prefix = '2.48000000E-001',
etot_conv_thr = 1.00000000E-007,
forc_conv_thr = 1.00000000E-007,
nstep = 200,
tprnfor = .true.,
tstress = .true.,
disk_io = 'low',
/
&SYSTEM
ibrav = 14,
celldm(1) = 3.05001797E+001,
celldm(2) = 1.00000000E+000,
celldm(3) = 1.00000000E+000,
celldm(4) = 0.00000000E+000,
celldm(5) = 0.00000000E+000,
celldm(6) = 0.00000000E+000,
nat = 256,
ntyp = 1,
ecutwfc = 35,
ecutrho = 208,
occupations = 'smearing',
smearing = 'mv',
degauss = 5.00000007E-002,
/
&ELECTRONS
diagonalization = 'david',
mixing_mode = plain,
mixing_beta = 6.99999988E-001,
conv_thr = 1.00000000E-007,
/
&IONS
ion_dynamics = 'bfgs',
/
&CELL
cell_dynamics = 'bfgs',
press = 0.00000000E+000,
cell_factor = 2.00000000E+000,
/
ATOMIC_SPECIES
Al  2.69815390E+001  Al.pbe-n-kjpaw_psl.0.1.UPF
ATOMIC_POSITIONS crystal
Al  -1.26170198E-003  6.41240470E-004  4.42588373E-004
Al  1.22504541E-001  1.25018119E-001  -4.93516925E-005
Al  1.25408119E-001  -2.27935607E-003  1.24879499E-001
Al  -7.01396514E-004  1.24347495E-001  1.27060178E-001
Al  2.44526621E-003  -6.26332617E-004  2.52418555E-001
Al  1.23817777E-001  1.25232313E-001  2.50093636E-001
Al  1.25306615E-001  1.57780385E-003  3.75746845E-001
Al  2.24498056E-003  1.27012374E-001  3.77436263E-001
Al  2.49200845E-003  -4.93709745E-005  5.00018107E-001
Al  1.24990290E-001  1.24981839E-001  5.00125922E-001
Al  1.24331526E-001  2.74651408E-004  6.25426562E-001
Al  -2.29198745E-003  1.25155193E-001  6.22556527E-001
Al  8.71344169E-006  1.97801687E-003  7.49428225E-001
Al  1.22556470E-001  1.26924785E-001  7.47639169E-001
Al  1.25226002E-001  8.99044524E-006  8.77219644E-001
Al  2.12827591E-003  1.25132134E-001  8.72630190E-001
Al  -1.92750244E-003  2.47782482E-001  -1.37765718E-003
Al  1.25018108E-001  3.76504701E-001  -2.45840550E-003
Al  1.25325117E-001  2.49979894E-001  1.23213124E-001
Al  -1.23874238E-003  3.72631577E-001  1.25224748E-001
Al  6.80436888E-004  2.50118142E-001  2.52460382E-001
Al  1.27117966E-001  3.77457513E-001  2.49862441E-001
Al  1.27499941E-001  2.50543859E-001  3.76427377E-001
Al  1.81385363E-003  3.73678881E-001  3.72698202E-001
Al  2.49294542E-003  2.48331960E-001  4.99868912E-001
Al  1.25019435E-001  3.77491567E-001  4.98452598E-001
Al  1.25045645E-001  2.50135537E-001  6.24587121E-001
Al  -9.23667707E-006  3.72692615E-001  6.27271371E-001
Al  6.78775790E-005  2.50018824E-001  7.50719028E-001
Al  1.23978008E-001  3.76959456E-001  7.49991620E-001
Al  1.24014634E-001  2.48070466E-001  8.74142896E-001
Al  6.03195219E-005  3.73637108E-001  8.77385057E-001
Al  1.65069039E-003  5.02237182E-001  -2.48218832E-003
Al  1.25070691E-001  6.24991321E-001  -1.94509338E-005
Al  1.24981881E-001  5.01342171E-001  1.26494927E-001
Al  8.18039580E-005  6.25382966E-001  1.25024467E-001
Al  4.80507444E-005  5.02447777E-001  2.47797560E-001
Al  1.24991402E-001  6.25772019E-001  2.50404339E-001
Al  1.22500302E-001  5.00008372E-001  3.76027484E-001
Al  -8.59976866E-006  6.23646923E-001  3.73261426E-001
Al  -3.01595328E-004  5.00034261E-001  5.00297711E-001
Al  1.25335720E-001  6.22736807E-001  4.99334642E-001
Al  1.24386688E-001  4.98281281E-001  6.26707752E-001
Al  8.93847198E-006  6.24821374E-001  6.24958394E-001
Al  2.53836278E-004  4.99486270E-001  7.49980532E-001
Al  1.25009535E-001  6.27497047E-001  7.47904881E-001
Al  1.24535083E-001  4.98089057E-001  8.76701753E-001
Al  2.34058066E-003  6.22555652E-001  8.74694474E-001
Al  1.36551477E-003  7.47714382E-001  6.31365944E-005
Al  1.24345375E-001  8.76127726E-001  8.43367166E-006
Al  1.24852541E-001  7.50352260E-001  1.25933447E-001
Al  4.33448922E-005  8.75023238E-001  1.25534087E-001
Al  -1.04026268E-003  7.47509573E-001  2.49979133E-001
Al  1.25048780E-001  8.76259235E-001  2.48636260E-001
Al  1.24037791E-001  7.48054552E-001  3.74886227E-001
Al  7.86827182E-004  8.72551371E-001  3.74765154E-001
Al  1.31327859E-003  7.50419078E-001  4.98842858E-001
Al  1.26023261E-001  8.74991143E-001  5.02497557E-001
Al  1.25416273E-001  7.50036232E-001  6.27481308E-001
Al  -3.14609864E-004  8.75300540E-001  6.26078487E-001
Al  2.29960810E-003  7.48536965E-001  7.52293961E-001
Al  1.25703615E-001  8.77391968E-001  7.49143070E-001
Al  1.25477629E-001  7.50018261E-001  8.77369639E-001
Al  1.93254706E-004  8.77475886E-001  8.72547954E-001
Al  2.49783787E-001  1.45887117E-003  -2.03708809E-003
Al  3.76354965E-001  1.22519754E-001  -1.49498774E-003
Al  3.74779179E-001  -1.02503554E-003  1.24937316E-001
Al  2.52480739E-001  1.24991258E-001  1.27302673E-001
Al  2.50008504E-001  2.21022769E-003  2.50056141E-001
Al  3.75222678E-001  1.25095017E-001  2.52472992E-001
Al  3.75026068E-001  -2.38265039E-003  3.73578842E-001
Al  2.50081001E-001  1.25032385E-001  3.75764720E-001
Al  2.48134213E-001  2.11794168E-003  4.97513699E-001
Al  3.74968142E-001  1.24730211E-001  5.01075974E-001
Al  3.74487157E-001  4.16560573E-004  6.22583914E-001
Al  2.47602721E-001  1.23486186E-001  6.24300797E-001
Al  2.47748590E-001  1.81824277E-005  7.50050474E-001
Al  3.76499424E-001  1.25018509E-001  7.49502020E-001
Al  3.74930389E-001  1.04493611E-003  8.74991236E-001
Al  2.50157517E-001  1.24921826E-001  8.74044581E-001
Al  2.49981676E-001  2.51613422E-001  9.05185842E-004
Al  3.74138790E-001  3.76032360E-001  5.35118600E-004
Al  3.72635156E-001  2.51054078E-001  1.24813414E-001
Al  2.50789276E-001  3.75057250E-001  1.23531109E-001
Al  2.51490702E-001  2.51209435E-001  2.52486447E-001
Al  3.74235077E-001  3.75324394E-001  2.52335972E-001
Al  3.74981490E-001  2.50031262E-001  3.75482171E-001
Al  2.51681312E-001  3.74991330E-001  3.74962211E-001
Al  2.50050499E-001  2.52331185E-001  5.02482939E-001
Al  3.74506848E-001  3.75426661E-001  4.99981888E-001
Al  3.74578794E-001  2.48692384E-001  6.24991523E-001
Al  2.50429807E-001  3.74990532E-001  6.24978752E-001
Al  2.48715978E-001  2.50694398E-001  7.52396479E-001
Al  3.74945344E-001  3.75211552E-001  7.50069331E-001
Al  3.74527277E-001  2.50042901E-001  8.75354999E-001
Al  2.48686588E-001  3.74006250E-001  8.75334868E-001
Al  2.49991622E-001  4.99886876E-001  -3.60599101E-004
Al  3.75432563E-001  6.26430275E-001  -5.93608768E-005
Al  3.73564874E-001  5.00009416E-001  1.24974442E-001
Al  2.50701631E-001  6.26634903E-001  1.27419852E-001
Al  2.52476313E-001  5.01115736E-001  2.47571001E-001
Al  3.72547827E-001  6.23532603E-001  2.50026835E-001
Al  3.73281687E-001  4.99580357E-001  3.74519013E-001
Al  2.49976417E-001  6.27162165E-001  3.74981880E-001
Al  2.50047287E-001  4.99972589E-001  5.01580242E-001
Al  3.74552567E-001  6.27353810E-001  5.00577893E-001
Al  3.75080874E-001  5.00116534E-001  6.25291135E-001
Al  2.47632782E-001  6.24178539E-001  6.25528441E-001
Al  2.51261249E-001  4.99991226E-001  7.50814912E-001
Al  3.75019326E-001  6.27420994E-001  7.47697010E-001
Al  3.75118932E-001  4.99991461E-001  8.76403696E-001
Al  2.52459736E-001  6.24661967E-001  8.74874201E-001
Al  2.50396848E-001  7.50139289E-001  3.45382934E-005
Al  3.75038549E-001  8.74978711E-001  1.23245554E-004
Al  3.75283730E-001  7.50090703E-001  1.22904268E-001
Al  2.49749269E-001  8.73210929E-001  1.25018682E-001
Al  2.50017898E-001  7.50008461E-001  2.49000797E-001
Al  3.75021466E-001  8.74855351E-001  2.48594919E-001
Al  3.75072305E-001  7.52055364E-001  3.76466167E-001
Al  2.50293086E-001  8.74991129E-001  3.75017313E-001
Al  2.50322547E-001  7.52457826E-001  4.99718250E-001
Al  3.75115243E-001  8.74027734E-001  5.00017365E-001
Al  3.72516790E-001  7.48085295E-001  6.24765218E-001
Al  2.50414238E-001  8.75162767E-001  6.25022192E-001
Al  2.49973367E-001  7.48113311E-001  7.50008756E-001
Al  3.73506647E-001  8.75896012E-001  7.50227706E-001
Al  3.74612892E-001  7.49032187E-001  8.77276661E-001
Al  2.52499730E-001  8.74664939E-001  8.72592737E-001
Al  4.99869815E-001  -2.23274727E-003  -1.15765071E-003
Al  6.23909928E-001  1.27456784E-001  1.62575089E-003
Al  6.27314553E-001  1.94202819E-003  1.25009304E-001
Al  4.99538030E-001  1.26293611E-001  1.22720718E-001
Al  4.98319539E-001  2.11917145E-003  2.50181006E-001
Al  6.24693714E-001  1.24990849E-001  2.47654195E-001
Al  6.25613004E-001  -2.36423445E-003  3.72518778E-001
Al  5.00023387E-001  1.25936273E-001  3.74980627E-001
Al  5.00128404E-001  -1.81095773E-005  5.02189395E-001
Al  6.25046464E-001  1.24349609E-001  5.00628693E-001
Al  6.23753953E-001  1.17563429E-004  6.22639165E-001
Al  5.00019676E-001  1.25106340E-001  6.22799196E-001
Al  4.97673293E-001  -1.07493428E-003  7.50120219E-001
Al  6.23531144E-001  1.26656004E-001  7.50146409E-001
Al  6.23633259E-001  1.37206267E-003  8.75107652E-001
Al  4.99991622E-001  1.24728387E-001  8.73912009E-001
Al  5.00017085E-001  2.49137451E-001  2.68175518E-004
Al  6.23364597E-001  3.72616435E-001  -4.09872829E-005
Al  6.25293787E-001  2.48934414E-001  1.26383140E-001
Al  4.97904274E-001  3.74934865E-001  1.25581736E-001
Al  4.99850384E-001  2.49972892E-001  2.51921924E-001
Al  6.25080927E-001  3.73733802E-001  2.49329221E-001
Al  6.25712501E-001  2.49731664E-001  3.75008493E-001
Al  5.00018361E-001  3.77242097E-001  3.75022383E-001
Al  5.00645223E-001  2.49704751E-001  5.00026578E-001
Al  6.27085798E-001  3.74876195E-001  5.00854756E-001
Al  6.25378582E-001  2.52018118E-001  6.22638831E-001
Al  4.97688048E-001  3.72586169E-001  6.25054523E-001
Al  5.00031642E-001  2.49169478E-001  7.51369636E-001
Al  6.24929476E-001  3.72965641E-001  7.50621135E-001
Al  6.26940564E-001  2.49982294E-001  8.75336746E-001
Al  4.99881848E-001  3.75055995E-001  8.77317929E-001
Al  5.01930455E-001  5.00069624E-001  3.35756649E-004
Al  6.25408912E-001  6.25387131E-001  2.46044685E-003
Al  6.24829756E-001  5.00361122E-001  1.24643096E-001
Al  4.99958820E-001  6.25481041E-001  1.24774437E-001
Al  4.97811904E-001  5.02438054E-001  2.50044693E-001
Al  6.24281994E-001  6.27499985E-001  2.49980079E-001
Al  6.23599831E-001  4.98531647E-001  3.76330672E-001
Al  4.98396574E-001  6.25071399E-001  3.73354797E-001
Al  4.99948708E-001  4.99910004E-001  4.97532628E-001
Al  6.26279748E-001  6.24168388E-001  5.01816137E-001
Al  6.25145885E-001  5.00113349E-001  6.25100646E-001
Al  5.02437348E-001  6.25782654E-001  6.25737575E-001
Al  4.97506870E-001  5.01416441E-001  7.49794624E-001
Al  6.23705776E-001  6.26749157E-001  7.49552429E-001
Al  6.25137278E-001  4.99472825E-001  8.75413113E-001
Al  4.99406340E-001  6.23145077E-001  8.75008394E-001
Al  5.00456462E-001  7.49880202E-001  2.22640965E-004
Al  6.24319708E-001  8.77259784E-001  9.02202703E-006
Al  6.22500374E-001  7.48737844E-001  1.26358950E-001
Al  4.98090861E-001  8.75119656E-001  1.22783935E-001
Al  4.97931285E-001  7.49898907E-001  2.49957956E-001
Al  6.25399679E-001  8.73085439E-001  2.50460924E-001
Al  6.24589978E-001  7.49930432E-001  3.74910716E-001
Al  5.02485598E-001  8.77474362E-001  3.77429385E-001
Al  4.99701432E-001  7.49990615E-001  4.99943686E-001
Al  6.24981400E-001  8.74014869E-001  5.00034504E-001
Al  6.26457758E-001  7.52056871E-001  6.25031553E-001
Al  4.99322901E-001  8.77189377E-001  6.22518214E-001
Al  4.99882814E-001  7.50517349E-001  7.47506659E-001
Al  6.25829172E-001  8.74965843E-001  7.52259761E-001
Al  6.26563661E-001  7.50089658E-001  8.75018596E-001
Al  5.00159880E-001  8.76739068E-001  8.74982881E-001
Al  7.47502563E-001  1.12156735E-003  2.27652424E-003
Al  8.76025925E-001  1.26648576E-001  1.52969102E-003
Al  8.74723781E-001  2.35162272E-003  1.24780719E-001
Al  7.49945451E-001  1.27496212E-001  1.24627749E-001
Al  7.52280303E-001  -1.03901941E-003  2.47746434E-001
Al  8.75029166E-001  1.22602421E-001  2.49922132E-001
Al  8.75066874E-001  8.94193713E-006  3.77320086E-001
Al  7.49858271E-001  1.25050172E-001  3.76136570E-001
Al  7.47745389E-001  3.16110730E-004  4.97988304E-001
Al  8.75024385E-001  1.24410690E-001  5.01329516E-001
Al  8.74747590E-001  -3.05001626E-005  6.24238953E-001
Al  7.49067484E-001  1.22658080E-001  6.24964824E-001
Al  7.50040138E-001  -2.55459443E-004  7.49454217E-001
Al  8.73806435E-001  1.24840630E-001  7.50696393E-001
Al  8.74913548E-001  1.46146871E-003  8.75082000E-001
Al  7.50018433E-001  1.24218378E-001  8.74443471E-001
Al  7.50572666E-001  2.50517262E-001  -2.35818491E-003
Al  8.76582097E-001  3.75081000E-001  -9.92240935E-005
Al  8.75762909E-001  2.49441007E-001  1.24953959E-001
Al  7.52499549E-001  3.75008659E-001  1.24910494E-001
Al  7.47825799E-001  2.50085848E-001  2.51281731E-001
Al  8.76355333E-001  3.74990882E-001  2.48298843E-001
Al  8.75018633E-001  2.47600204E-001  3.72545324E-001
Al  7.47512201E-001  3.73924866E-001  3.73400528E-001
Al  7.50047138E-001  2.49628680E-001  5.02430653E-001
Al  8.76999095E-001  3.74570210E-001  4.99805794E-001
Al  8.75008890E-001  2.50046447E-001  6.25257780E-001
Al  7.50789535E-001  3.75030911E-001  6.24593421E-001
Al  7.52497132E-001  2.50662885E-001  7.50802014E-001
Al  8.76249452E-001  3.74991517E-001  7.50117868E-001
Al  8.75572464E-001  2.49002600E-001  8.72516566E-001
Al  7.52421979E-001  3.75089886E-001  8.75056022E-001
Al  7.50129795E-001  4.99660009E-001  -1.89464415E-003
Al  8.72630822E-001  6.25306262E-001  4.59098808E-004
Al  8.72586138E-001  4.99466544E-001  1.24970266E-001
Al  7.50017862E-001  6.22565607E-001  1.24251027E-001
Al  7.50033328E-001  5.00008370E-001  2.49980571E-001
Al  8.74966046E-001  6.24775103E-001  2.49860698E-001
Al  8.75022078E-001  4.99613144E-001  3.74401046E-001
Al  7.50916977E-001  6.24430517E-001  3.72776781E-001
Al  7.49866600E-001  4.99980742E-001  5.00264468E-001
Al  8.75009094E-001  6.24981646E-001  4.97502221E-001
Al  8.75236597E-001  4.97541051E-001  6.25525856E-001
Al  7.49981880E-001  6.24295427E-001  6.24774580E-001
Al  7.49521043E-001  4.97553834E-001  7.49075712E-001
Al  8.77310724E-001  6.27445171E-001  7.49981892E-001
Al  8.75008658E-001  4.99944862E-001  8.74671096E-001
Al  7.47607046E-001  6.24991624E-001  8.74831910E-001
Al  7.49885501E-001  7.50431907E-001  -2.42430089E-003
Al  8.75903103E-001  8.75656173E-001  -1.86047777E-003
Al  8.77350411E-001  7.50263739E-001  1.25034033E-001
Al  7.50081346E-001  8.74946755E-001  1.22974002E-001
Al  7.50039921E-001  7.52492420E-001  2.49539702E-001
Al  8.75054975E-001  8.77189358E-001  2.52292436E-001
Al  8.73147748E-001  7.52481785E-001  3.74787280E-001
Al  7.49919196E-001  8.77189615E-001  3.77330806E-001
Al  7.51829296E-001  7.51685913E-001  5.01282777E-001
Al  8.74174886E-001  8.77095516E-001  5.00024268E-001
Al  8.75090416E-001  7.52248406E-001  6.24847670E-001
Al  7.48273619E-001  8.73940030E-001  6.24636209E-001
Al  7.50089607E-001  7.49553798E-001  7.50530945E-001
Al  8.75232909E-001  8.73795852E-001  7.50620517E-001
Al  8.76821493E-001  7.49537086E-001  8.74454052E-001
Al  7.50106399E-001  8.73997834E-001  8.75385667E-001
K_POINTS automatic
2 2 2 1 1 1
