&CONTROL
restart_mode = 'from_scratch',
calculation = 'scf',
outdir = '/gpfs/bb/bxp912/scratch',
pseudo_dir = '/gpfs/bb/bxp912/pseudopotentials',
prefix = '2.48000000E-001',
etot_conv_thr = 1.00000000E-007,
forc_conv_thr = 1.00000000E-007,
nstep = 200,
tprnfor = .true.,
tstress = .true.,
disk_io = 'low',
/
&SYSTEM
ibrav = 14,
celldm(1) = 3.05001797E+001,
celldm(2) = 1.00000000E+000,
celldm(3) = 1.00000000E+000,
celldm(4) = 0.00000000E+000,
celldm(5) = 0.00000000E+000,
celldm(6) = 0.00000000E+000,
nat = 256,
ntyp = 1,
ecutwfc = 35,
ecutrho = 208,
occupations = 'smearing',
smearing = 'mv',
degauss = 5.00000007E-002,
/
&ELECTRONS
diagonalization = 'david',
mixing_mode = plain,
mixing_beta = 6.99999988E-001,
conv_thr = 1.00000000E-007,
/
&IONS
ion_dynamics = 'bfgs',
/
&CELL
cell_dynamics = 'bfgs',
press = 0.00000000E+000,
cell_factor = 2.00000000E+000,
/
ATOMIC_SPECIES
Al  2.69815390E+001  Al.pbe-n-kjpaw_psl.0.1.UPF
ATOMIC_POSITIONS crystal
Al  -1.36215959E-004  2.45048112E-003  -1.73897057E-004
Al  1.22935478E-001  1.25018161E-001  4.30957029E-005
Al  1.26310120E-001  2.00702166E-003  1.25513113E-001
Al  -2.74870987E-005  1.23825302E-001  1.22518964E-001
Al  5.00667331E-004  2.43636034E-003  2.50008437E-001
Al  1.27494590E-001  1.26231726E-001  2.47584077E-001
Al  1.24921240E-001  -4.41146709E-004  3.73285458E-001
Al  -2.48877545E-003  1.24990294E-001  3.74242893E-001
Al  1.74596376E-003  2.63347384E-004  4.99876990E-001
Al  1.24981736E-001  1.24849738E-001  5.01740940E-001
Al  1.27401379E-001  -8.34377977E-004  6.24774346E-001
Al  -1.96399838E-003  1.24177048E-001  6.25008392E-001
Al  -2.66456343E-004  -1.18687254E-003  7.52128778E-001
Al  1.22801249E-001  1.22851957E-001  7.50140295E-001
Al  1.24967826E-001  -1.21020035E-003  8.77382032E-001
Al  1.80278295E-004  1.25206473E-001  8.74991593E-001
Al  2.44521228E-003  2.49917563E-001  -1.98797295E-004
Al  1.24652600E-001  3.75115282E-001  -2.34134778E-003
Al  1.25287180E-001  2.52145385E-001  1.25019630E-001
Al  -2.51444529E-004  3.73911950E-001  1.25201125E-001
Al  -2.14651984E-003  2.50233326E-001  2.47995313E-001
Al  1.24327505E-001  3.75053584E-001  2.49793812E-001
Al  1.25018220E-001  2.49296463E-001  3.75021609E-001
Al  -2.94672213E-005  3.74751057E-001  3.73534149E-001
Al  -3.74109861E-004  2.50538733E-001  5.00544668E-001
Al  1.23226930E-001  3.77284498E-001  5.02426161E-001
Al  1.26667739E-001  2.48451088E-001  6.24518633E-001
Al  -6.47215718E-004  3.74932503E-001  6.24972868E-001
Al  1.87596725E-005  2.51045020E-001  7.49879166E-001
Al  1.24294367E-001  3.73124967E-001  7.49968702E-001
Al  1.25195689E-001  2.50008404E-001  8.76195229E-001
Al  -2.01791236E-005  3.75173371E-001  8.75092218E-001
Al  2.15194463E-003  5.01626098E-001  4.99032862E-004
Al  1.25283565E-001  6.23107170E-001  1.95296400E-003
Al  1.24238390E-001  4.99204446E-001  1.25053890E-001
Al  -1.92089834E-003  6.25976927E-001  1.27463621E-001
Al  -4.02191780E-005  4.99926714E-001  2.50147648E-001
Al  1.25850067E-001  6.24954881E-001  2.48998719E-001
Al  1.25033868E-001  5.00473957E-001  3.75018139E-001
Al  6.52389115E-004  6.23727809E-001  3.73887017E-001
Al  2.45031900E-003  4.97646213E-001  5.00359465E-001
Al  1.25488382E-001  6.25055726E-001  5.01699399E-001
Al  1.22510813E-001  5.00183013E-001  6.24973295E-001
Al  -3.90920813E-004  6.27482600E-001  6.24607195E-001
Al  8.80111569E-006  5.02495378E-001  7.48294462E-001
Al  1.25038969E-001  6.24896219E-001  7.52455061E-001
Al  1.25018130E-001  5.00697202E-001  8.76821744E-001
Al  2.42263142E-003  6.25018819E-001  8.75349111E-001
Al  2.48778553E-003  7.52476266E-001  7.37582149E-005
Al  1.25172307E-001  8.73338311E-001  -3.04906566E-005
Al  1.23183656E-001  7.52071892E-001  1.25438463E-001
Al  -1.85274595E-005  8.73289724E-001  1.25080085E-001
Al  -1.02615785E-003  7.50118732E-001  2.50776145E-001
Al  1.24473962E-001  8.72967986E-001  2.50695996E-001
Al  1.24819063E-001  7.47702292E-001  3.76998388E-001
Al  -1.67788963E-003  8.75019861E-001  3.74293728E-001
Al  8.60459702E-004  7.49948287E-001  4.99754183E-001
Al  1.24486982E-001  8.77430999E-001  5.00113780E-001
Al  1.26452296E-001  7.50800267E-001  6.22857864E-001
Al  -2.09009199E-003  8.74675188E-001  6.25042329E-001
Al  1.18212591E-004  7.49961419E-001  7.48671678E-001
Al  1.24238571E-001  8.74859309E-001  7.51031011E-001
Al  1.23718109E-001  7.50020254E-001  8.77000768E-001
Al  -2.82369231E-004  8.76009668E-001  8.74930632E-001
Al  2.49839996E-001  -1.46925342E-003  1.16124208E-003
Al  3.73486528E-001  1.24399692E-001  -1.62896051E-003
Al  3.73669902E-001  6.12017103E-004  1.26251650E-001
Al  2.50155726E-001  1.23516071E-001  1.24981983E-001
Al  2.49973673E-001  1.94202189E-003  2.52370476E-001
Al  3.75018165E-001  1.25018941E-001  2.48403275E-001
Al  3.75341273E-001  -1.82241079E-005  3.77441855E-001
Al  2.49671389E-001  1.27293567E-001  3.76485704E-001
Al  2.49965385E-001  -2.91369392E-005  4.99945607E-001
Al  3.76274559E-001  1.24981509E-001  5.00023616E-001
Al  3.75095196E-001  -1.87937091E-005  6.25102811E-001
Al  2.49991529E-001  1.24961937E-001  6.25018107E-001
Al  2.50163294E-001  -1.85185529E-003  7.49957477E-001
Al  3.74562329E-001  1.25095353E-001  7.49592916E-001
Al  3.74206145E-001  8.37704394E-006  8.76505787E-001
Al  2.50357458E-001  1.26220864E-001  8.74980504E-001
Al  2.48432054E-001  2.52233871E-001  5.14144174E-004
Al  3.75244852E-001  3.75210086E-001  -1.18243663E-003
Al  3.73936818E-001  2.50197024E-001  1.25008400E-001
Al  2.52074697E-001  3.76613827E-001  1.24277755E-001
Al  2.49955742E-001  2.50031107E-001  2.52490392E-001
Al  3.73209326E-001  3.74981045E-001  2.49825288E-001
Al  3.75539886E-001  2.49638692E-001  3.72547085E-001
Al  2.50169373E-001  3.74580375E-001  3.72532218E-001
Al  2.49469652E-001  2.49910751E-001  4.99974952E-001
Al  3.74980491E-001  3.74717799E-001  4.97931515E-001
Al  3.74587931E-001  2.47760841E-001  6.25341785E-001
Al  2.50101428E-001  3.74297834E-001  6.26426238E-001
Al  2.49317956E-001  2.50312248E-001  7.49308456E-001
Al  3.75008766E-001  3.73816141E-001  7.49980614E-001
Al  3.74853527E-001  2.50018654E-001  8.74881227E-001
Al  2.49289627E-001  3.74991607E-001  8.77481595E-001
Al  2.52213643E-001  4.99948638E-001  2.25133179E-003
Al  3.76297470E-001  6.25762113E-001  1.61371396E-003
Al  3.74498723E-001  5.00373459E-001  1.24894959E-001
Al  2.49787898E-001  6.24981298E-001  1.25089838E-001
Al  2.51412083E-001  5.00455072E-001  2.50032894E-001
Al  3.75537619E-001  6.24812022E-001  2.52186534E-001
Al  3.73132950E-001  5.00241036E-001  3.77157155E-001
Al  2.51127538E-001  6.24944607E-001  3.77192429E-001
Al  2.49936004E-001  4.99642838E-001  4.97766780E-001
Al  3.75287600E-001  6.26009639E-001  4.99926186E-001
Al  3.72910194E-001  4.98196820E-001  6.27479413E-001
Al  2.49981299E-001  6.25019970E-001  6.24747013E-001
Al  2.50437138E-001  4.98051487E-001  7.50008373E-001
Al  3.72860175E-001  6.22766143E-001  7.50445412E-001
Al  3.75974929E-001  4.98816745E-001  8.74982445E-001
Al  2.50034778E-001  6.25402245E-001  8.73441655E-001
Al  2.48497119E-001  7.51214004E-001  -2.17619464E-003
Al  3.77019754E-001  8.72505323E-001  2.25373363E-003
Al  3.74901449E-001  7.47850842E-001  1.26550127E-001
Al  2.50008773E-001  8.73057254E-001  1.25088600E-001
Al  2.49335750E-001  7.51233009E-001  2.48198207E-001
Al  3.72510541E-001  8.74835165E-001  2.52368133E-001
Al  3.75093637E-001  7.52479745E-001  3.75056215E-001
Al  2.48830516E-001  8.74049948E-001  3.75210154E-001
Al  2.48504191E-001  7.52041604E-001  4.99981802E-001
Al  3.75110865E-001  8.73469501E-001  4.99002158E-001
Al  3.74963108E-001  7.49739734E-001  6.23243865E-001
Al  2.52458201E-001  8.77488520E-001  6.25102707E-001
Al  2.51550697E-001  7.49398094E-001  7.48962962E-001
Al  3.75657731E-001  8.72935880E-001  7.51542428E-001
Al  3.75560573E-001  7.48097220E-001  8.73773033E-001
Al  2.48426015E-001  8.74949678E-001  8.77359327E-001
Al  5.00104031E-001  -1.89668953E-005  1.08124117E-004
Al  6.24935708E-001  1.26132316E-001  -2.76619132E-004
Al  6.24369297E-001  1.80838889E-003  1.27484601E-001
Al  5.02491846E-001  1.27453080E-001  1.24943454E-001
Al  5.00212561E-001  2.47252582E-003  2.50444991E-001
Al  6.27209963E-001  1.25321714E-001  2.50360505E-001
Al  6.27256256E-001  -2.49845631E-003  3.74815390E-001
Al  5.01442166E-001  1.25166199E-001  3.75041419E-001
Al  4.99808417E-001  1.58273671E-003  4.99799290E-001
Al  6.22819624E-001  1.24981892E-001  5.02195817E-001
Al  6.24862638E-001  1.38020003E-004  6.25665228E-001
Al  5.01315925E-001  1.27351618E-001  6.26505133E-001
Al  4.98100040E-001  1.92233049E-003  7.49954815E-001
Al  6.23065101E-001  1.27417408E-001  7.50113179E-001
Al  6.22509454E-001  2.47402558E-003  8.72756475E-001
Al  4.97703627E-001  1.26336330E-001  8.77488886E-001
Al  5.00018899E-001  2.50019017E-001  -1.81851496E-005
Al  6.25009645E-001  3.73659247E-001  5.19981582E-005
Al  6.23773811E-001  2.50045869E-001  1.25181846E-001
Al  4.99937794E-001  3.74121417E-001  1.22916083E-001
Al  4.97510535E-001  2.50475647E-001  2.50625650E-001
Al  6.24669608E-001  3.76421016E-001  2.51455516E-001
Al  6.25009375E-001  2.50123274E-001  3.74522816E-001
Al  5.00008372E-001  3.74945425E-001  3.74456348E-001
Al  4.99991551E-001  2.49849888E-001  4.99751379E-001
Al  6.24981758E-001  3.74887578E-001  4.99426455E-001
Al  6.23868509E-001  2.50030172E-001  6.27161855E-001
Al  4.99557832E-001  3.72810590E-001  6.24381059E-001
Al  4.99390960E-001  2.47500180E-001  7.49716037E-001
Al  6.25055230E-001  3.74981136E-001  7.50166742E-001
Al  6.26279822E-001  2.50382540E-001  8.77335885E-001
Al  5.01066162E-001  3.74991206E-001  8.73357544E-001
Al  5.01208808E-001  4.99955509E-001  2.30612159E-005
Al  6.25030052E-001  6.24861408E-001  1.52179832E-003
Al  6.23738260E-001  4.99269609E-001  1.24656067E-001
Al  4.99890359E-001  6.27237228E-001  1.24981876E-001
Al  5.01503075E-001  4.98101135E-001  2.50097697E-001
Al  6.24873739E-001  6.24981871E-001  2.47546612E-001
Al  6.27053209E-001  5.00078717E-001  3.74913264E-001
Al  5.01976554E-001  6.24708625E-001  3.72824625E-001
Al  4.99991581E-001  4.98246906E-001  4.98001808E-001
Al  6.25008371E-001  6.26523391E-001  4.97509726E-001
Al  6.27473498E-001  5.00046654E-001  6.23437047E-001
Al  5.01919819E-001  6.25018858E-001  6.24971479E-001
Al  5.00028919E-001  4.97508136E-001  7.47707631E-001
Al  6.23479754E-001  6.22660758E-001  7.50409038E-001
Al  6.26115114E-001  5.00254506E-001  8.74981880E-001
Al  5.02385354E-001  6.25042939E-001  8.75008925E-001
Al  4.99328828E-001  7.49802002E-001  1.01422987E-003
Al  6.24960016E-001  8.75503277E-001  2.06036627E-003
Al  6.25018501E-001  7.51464666E-001  1.24322572E-001
Al  5.02266686E-001  8.76241680E-001  1.24202156E-001
Al  4.99991324E-001  7.52496120E-001  2.47614487E-001
Al  6.25875020E-001  8.75195200E-001  2.52360815E-001
Al  6.22524049E-001  7.50123781E-001  3.74981819E-001
Al  5.00008497E-001  8.75669831E-001  3.77090812E-001
Al  5.00870894E-001  7.47503810E-001  5.00093948E-001
Al  6.23886777E-001  8.77499917E-001  4.99543761E-001
Al  6.23082529E-001  7.49722948E-001  6.26295117E-001
Al  5.01178375E-001  8.75019679E-001  6.26789806E-001
Al  4.99981184E-001  7.50145609E-001  7.49889452E-001
Al  6.25589689E-001  8.75232143E-001  7.50042708E-001
Al  6.26370712E-001  7.48586057E-001  8.74981834E-001
Al  5.01015165E-001  8.75978164E-001  8.75031118E-001
Al  7.52119398E-001  -2.49370212E-003  2.44858826E-003
Al  8.76112167E-001  1.25812780E-001  1.15705516E-003
Al  8.74102847E-001  -1.78317554E-003  1.24968686E-001
Al  7.50609609E-001  1.25018837E-001  1.27478510E-001
Al  7.48135695E-001  3.79088810E-005  2.50043643E-001
Al  8.74969404E-001  1.26361098E-001  2.47812486E-001
Al  8.74936327E-001  4.04511143E-004  3.75018534E-001
Al  7.49981617E-001  1.24903974E-001  3.74980148E-001
Al  7.52091097E-001  2.20588137E-003  5.01512977E-001
Al  8.75106934E-001  1.25137232E-001  5.00668712E-001
Al  8.74001328E-001  -3.33302765E-004  6.23951191E-001
Al  7.52459029E-001  1.24423364E-001  6.24991355E-001
Al  7.48690607E-001  -1.06632028E-003  7.47520176E-001
Al  8.77162304E-001  1.25018196E-001  7.52181447E-001
Al  8.75805996E-001  -1.96707242E-003  8.74981361E-001
Al  7.49979190E-001  1.26610862E-001  8.76403724E-001
Al  7.49933507E-001  2.49884655E-001  1.00661367E-004
Al  8.74991303E-001  3.76485717E-001  -1.52267667E-003
Al  8.72668928E-001  2.49146845E-001  1.25056798E-001
Al  7.50483739E-001  3.77459873E-001  1.23530736E-001
Al  7.49991338E-001  2.49225234E-001  2.49762422E-001
Al  8.76828660E-001  3.77330584E-001  2.51904841E-001
Al  8.76893713E-001  2.51897374E-001  3.77169850E-001
Al  7.52377444E-001  3.75104874E-001  3.75766818E-001
Al  7.52496581E-001  2.49789106E-001  4.98126569E-001
Al  8.75202663E-001  3.75129446E-001  5.01540063E-001
Al  8.75675856E-001  2.50019693E-001  6.24458670E-001
Al  7.49494897E-001  3.73683424E-001  6.24977283E-001
Al  7.52498882E-001  2.52499884E-001  7.49434650E-001
Al  8.77456859E-001  3.75263266E-001  7.48474530E-001
Al  8.75027107E-001  2.49867312E-001  8.73395001E-001
Al  7.50021541E-001  3.74908412E-001  8.73070293E-001
Al  7.50338740E-001  5.00051226E-001  -7.30931940E-005
Al  8.72722155E-001  6.24961486E-001  8.33302017E-004
Al  8.76347030E-001  5.00018765E-001  1.25093654E-001
Al  7.52379010E-001  6.25186345E-001  1.23511661E-001
Al  7.52301131E-001  4.99991399E-001  2.49186731E-001
Al  8.75260743E-001  6.24970749E-001  2.49970979E-001
Al  8.75149564E-001  5.00214100E-001  3.75422782E-001
Al  7.49981877E-001  6.24925091E-001  3.73455235E-001
Al  7.50008694E-001  4.98781697E-001  4.98389950E-001
Al  8.76823632E-001  6.27090965E-001  5.00008417E-001
Al  8.76572902E-001  5.00018575E-001  6.25018938E-001
Al  7.50560317E-001  6.24908480E-001  6.25020931E-001
Al  7.50423058E-001  4.99003635E-001  7.47708820E-001
Al  8.75045485E-001  6.23873929E-001  7.49901134E-001
Al  8.72647948E-001  4.99823086E-001  8.75035216E-001
Al  7.50018273E-001  6.22853022E-001  8.74289416E-001
Al  7.51153724E-001  7.51444443E-001  -9.55623991E-004
Al  8.76213929E-001  8.74914681E-001  -1.98001006E-004
Al  8.73006989E-001  7.49641697E-001  1.25018942E-001
Al  7.49980781E-001  8.75427146E-001  1.23338944E-001
Al  7.48257887E-001  7.49950256E-001  2.48360401E-001
Al  8.74057089E-001  8.74128063E-001  2.48380959E-001
Al  8.72578567E-001  7.50018775E-001  3.75070391E-001
Al  7.50008708E-001  8.76124753E-001  3.76871710E-001
Al  7.51398790E-001  7.49523911E-001  5.00246831E-001
Al  8.73918111E-001  8.72514935E-001  5.00417458E-001
Al  8.75105586E-001  7.48400726E-001  6.25334899E-001
Al  7.49980286E-001  8.74710165E-001  6.26008836E-001
Al  7.49949203E-001  7.50363676E-001  7.50009832E-001
Al  8.74636519E-001  8.74920683E-001  7.48715409E-001
Al  8.75979265E-001  7.49991001E-001  8.75219975E-001
Al  7.49947457E-001  8.72885275E-001  8.75177237E-001
K_POINTS automatic
2 2 2 1 1 1
