&CONTROL
restart_mode = 'from_scratch',
calculation = 'scf',
outdir = '/gpfs/bb/bxp912/scratch',
pseudo_dir = '/gpfs/bb/bxp912/pseudopotentials',
prefix = '2.48000000E-001',
etot_conv_thr = 1.00000000E-007,
forc_conv_thr = 1.00000000E-007,
nstep = 200,
tprnfor = .true.,
tstress = .true.,
disk_io = 'low',
/
&SYSTEM
ibrav = 14,
celldm(1) = 3.05001797E+001,
celldm(2) = 1.00000000E+000,
celldm(3) = 1.00000000E+000,
celldm(4) = 0.00000000E+000,
celldm(5) = 0.00000000E+000,
celldm(6) = 0.00000000E+000,
nat = 256,
ntyp = 1,
ecutwfc = 35,
ecutrho = 208,
occupations = 'smearing',
smearing = 'mv',
degauss = 5.00000007E-002,
/
&ELECTRONS
diagonalization = 'david',
mixing_mode = plain,
mixing_beta = 6.99999988E-001,
conv_thr = 1.00000000E-007,
/
&IONS
ion_dynamics = 'bfgs',
/
&CELL
cell_dynamics = 'bfgs',
press = 0.00000000E+000,
cell_factor = 2.00000000E+000,
/
ATOMIC_SPECIES
Al  2.69815390E+001  Al.pbe-n-kjpaw_psl.0.1.UPF
ATOMIC_POSITIONS crystal
Al  1.31472441E-004  -1.81376655E-005  1.84605186E-005
Al  1.24683784E-001  1.22733980E-001  2.54619795E-004
Al  1.24505204E-001  -1.11461176E-004  1.23436994E-001
Al  2.34273746E-003  1.24352951E-001  1.24705119E-001
Al  -1.23430832E-003  -3.82252227E-005  2.47654362E-001
Al  1.26366714E-001  1.24864231E-001  2.50094009E-001
Al  1.23504056E-001  4.79562467E-004  3.74313051E-001
Al  -8.44659762E-004  1.24885403E-001  3.72648185E-001
Al  -5.30042140E-004  1.31782582E-003  4.99297946E-001
Al  1.25583121E-001  1.25337381E-001  5.00052330E-001
Al  1.25211276E-001  -1.92091266E-005  6.23566413E-001
Al  -1.83797079E-003  1.25614076E-001  6.26934188E-001
Al  -2.29497479E-003  -1.43798815E-003  7.50033522E-001
Al  1.25258623E-001  1.25386338E-001  7.50239559E-001
Al  1.24298735E-001  -8.70959004E-005  8.72653586E-001
Al  -1.75872929E-005  1.24780631E-001  8.73156698E-001
Al  1.71736758E-003  2.49767945E-001  -2.62952523E-004
Al  1.25379703E-001  3.75910208E-001  -9.93335373E-005
Al  1.24272325E-001  2.49926937E-001  1.25338774E-001
Al  2.02640227E-005  3.74810342E-001  1.23900902E-001
Al  1.82228076E-005  2.49020082E-001  2.51627075E-001
Al  1.27261397E-001  3.74925100E-001  2.51711953E-001
Al  1.24895694E-001  2.49340605E-001  3.72981172E-001
Al  2.47411913E-003  3.74990238E-001  3.75008396E-001
Al  -1.39861634E-004  2.50210643E-001  5.00243623E-001
Al  1.24991160E-001  3.75792179E-001  5.02384969E-001
Al  1.26881301E-001  2.50078287E-001  6.25113119E-001
Al  -2.20034941E-003  3.74609052E-001  6.22710415E-001
Al  5.38645512E-005  2.47885762E-001  7.47500343E-001
Al  1.27491642E-001  3.73442612E-001  7.50095968E-001
Al  1.25886969E-001  2.51140092E-001  8.75182547E-001
Al  -2.46821993E-003  3.73972566E-001  8.77002819E-001
Al  -6.96596548E-004  4.99877637E-001  -2.01087085E-003
Al  1.24846597E-001  6.25020845E-001  -1.64924807E-003
Al  1.24799012E-001  4.98925096E-001  1.24733633E-001
Al  5.50365740E-005  6.23995428E-001  1.24109028E-001
Al  -1.15494094E-003  5.01991138E-001  2.49037395E-001
Al  1.25018523E-001  6.26884993E-001  2.50418346E-001
Al  1.24099767E-001  4.97942976E-001  3.75081370E-001
Al  -1.01651031E-003  6.24260204E-001  3.72990354E-001
Al  -5.28145946E-005  5.02496972E-001  4.99924804E-001
Al  1.24944245E-001  6.26252275E-001  5.01063527E-001
Al  1.27499647E-001  5.00894706E-001  6.22567448E-001
Al  -8.31732264E-004  6.25249353E-001  6.24150124E-001
Al  1.61457561E-003  4.99981344E-001  7.47530822E-001
Al  1.24826564E-001  6.25008567E-001  7.51346356E-001
Al  1.26194497E-001  5.02437603E-001  8.75149461E-001
Al  2.49886069E-003  6.23377219E-001  8.73001945E-001
Al  -1.47988665E-003  7.51629041E-001  -2.49530495E-003
Al  1.24701368E-001  8.74428234E-001  -8.85914546E-004
Al  1.22927994E-001  7.49798472E-001  1.23088344E-001
Al  1.91609969E-003  8.74797016E-001  1.24929240E-001
Al  2.62995498E-004  7.49954638E-001  2.49937284E-001
Al  1.24919204E-001  8.75023807E-001  2.49957117E-001
Al  1.22692274E-001  7.52498966E-001  3.77214387E-001
Al  -2.27554508E-003  8.74430149E-001  3.74865300E-001
Al  -2.27056263E-003  7.49648994E-001  5.00928260E-001
Al  1.25984436E-001  8.76366545E-001  4.99981845E-001
Al  1.27499185E-001  7.50018270E-001  6.22734121E-001
Al  -1.24573492E-003  8.72571529E-001  6.27218737E-001
Al  2.49458102E-003  7.47520121E-001  7.49974174E-001
Al  1.23328111E-001  8.72627144E-001  7.50222646E-001
Al  1.27499110E-001  7.48800602E-001  8.77310716E-001
Al  -8.66857003E-004  8.74991530E-001  8.73375972E-001
Al  2.47887081E-001  1.85765051E-005  -1.09620196E-003
Al  3.72688787E-001  1.22891354E-001  5.58978262E-005
Al  3.75489572E-001  1.83081256E-004  1.23117535E-001
Al  2.52394532E-001  1.24964774E-001  1.25039124E-001
Al  2.49886303E-001  1.04418720E-004  2.49772863E-001
Al  3.75008461E-001  1.25258304E-001  2.49546946E-001
Al  3.74955797E-001  1.73301599E-003  3.74603812E-001
Al  2.52401164E-001  1.24981777E-001  3.75101102E-001
Al  2.52457814E-001  2.41100709E-005  4.99432549E-001
Al  3.74796975E-001  1.26165157E-001  5.02290650E-001
Al  3.75030001E-001  1.27332572E-003  6.27493269E-001
Al  2.50031398E-001  1.24062759E-001  6.23897676E-001
Al  2.52150964E-001  2.02388354E-004  7.51119806E-001
Al  3.75655762E-001  1.22746074E-001  7.48980545E-001
Al  3.74872090E-001  6.27299788E-005  8.77426288E-001
Al  2.47547695E-001  1.25505131E-001  8.72725881E-001
Al  2.50008824E-001  2.49873467E-001  8.45589940E-006
Al  3.75045329E-001  3.74924442E-001  -2.09795490E-003
Al  3.74713219E-001  2.51803658E-001  1.23902188E-001
Al  2.49967492E-001  3.74991442E-001  1.27061937E-001
Al  2.49834985E-001  2.51349307E-001  2.49991553E-001
Al  3.75018747E-001  3.72511845E-001  2.47556748E-001
Al  3.77485378E-001  2.50497321E-001  3.75121503E-001
Al  2.47500651E-001  3.77313990E-001  3.75115403E-001
Al  2.49990580E-001  2.50009215E-001  5.00154918E-001
Al  3.75008392E-001  3.74761073E-001  4.99991048E-001
Al  3.73003310E-001  2.50018117E-001  6.24455567E-001
Al  2.50018352E-001  3.74933857E-001  6.25147370E-001
Al  2.48126319E-001  2.47676836E-001  7.51961486E-001
Al  3.74973511E-001  3.75643641E-001  7.49978565E-001
Al  3.75658415E-001  2.49716880E-001  8.74876369E-001
Al  2.49981889E-001  3.74245994E-001  8.72545307E-001
Al  2.49940093E-001  4.98223606E-001  2.32432542E-004
Al  3.74991105E-001  6.27497654E-001  7.96420148E-005
Al  3.75018112E-001  5.00568476E-001  1.25264789E-001
Al  2.49861019E-001  6.27423694E-001  1.27481026E-001
Al  2.49823380E-001  4.98207097E-001  2.50008474E-001
Al  3.75181257E-001  6.24875163E-001  2.49981893E-001
Al  3.73548198E-001  4.99981070E-001  3.73366094E-001
Al  2.50263568E-001  6.24493707E-001  3.74682847E-001
Al  2.49890226E-001  4.98600871E-001  4.99974443E-001
Al  3.75858844E-001  6.24842755E-001  5.00255953E-001
Al  3.72622249E-001  5.02495002E-001  6.22606438E-001
Al  2.48830782E-001  6.26529933E-001  6.24517530E-001
Al  2.49976552E-001  4.99991629E-001  7.50101911E-001
Al  3.74381988E-001  6.26492639E-001  7.49706468E-001
Al  3.77267297E-001  4.99914105E-001  8.72532135E-001
Al  2.50099766E-001  6.24947281E-001  8.74980032E-001
Al  2.50021255E-001  7.49140882E-001  1.75783218E-003
Al  3.74641660E-001  8.72972029E-001  8.86256885E-006
Al  3.73171097E-001  7.50018608E-001  1.23090076E-001
Al  2.49990196E-001  8.75018118E-001  1.25417793E-001
Al  2.52369150E-001  7.47956808E-001  2.51681410E-001
Al  3.76096120E-001  8.75022474E-001  2.50320106E-001
Al  3.74861242E-001  7.51832332E-001  3.73597676E-001
Al  2.50483584E-001  8.75625279E-001  3.75743999E-001
Al  2.50089458E-001  7.49117851E-001  5.00018108E-001
Al  3.73280016E-001  8.72680592E-001  4.99953137E-001
Al  3.75140389E-001  7.49981853E-001  6.26560505E-001
Al  2.49481718E-001  8.75712896E-001  6.25775716E-001
Al  2.49633940E-001  7.49895949E-001  7.50020082E-001
Al  3.74942664E-001  8.75107755E-001  7.52178233E-001
Al  3.75226646E-001  7.52386097E-001  8.73777161E-001
Al  2.50267049E-001  8.74626524E-001  8.74601928E-001
Al  4.99399232E-001  -2.18332004E-004  1.96370621E-003
Al  6.25917366E-001  1.25175571E-001  -1.82256558E-005
Al  6.24823285E-001  1.51212201E-003  1.26779345E-001
Al  5.00020217E-001  1.24031208E-001  1.27418791E-001
Al  5.00067019E-001  -2.46785569E-003  2.49893718E-001
Al  6.25067072E-001  1.24925563E-001  2.50017419E-001
Al  6.26286646E-001  -1.51743691E-003  3.75477159E-001
Al  5.00555404E-001  1.24991628E-001  3.73774495E-001
Al  5.00018890E-001  1.84669350E-003  5.00589683E-001
Al  6.24207407E-001  1.26538871E-001  5.00075966E-001
Al  6.25129168E-001  -8.10444947E-005  6.24516921E-001
Al  5.01649451E-001  1.25018183E-001  6.27336389E-001
Al  4.99902622E-001  1.23842409E-004  7.50175998E-001
Al  6.23974080E-001  1.25284812E-001  7.49979485E-001
Al  6.25008469E-001  -2.15679605E-003  8.74862604E-001
Al  4.99980167E-001  1.24746094E-001  8.74794684E-001
Al  4.97644074E-001  2.49776554E-001  8.68724868E-006
Al  6.22647892E-001  3.76740694E-001  -5.44458205E-004
Al  6.24974162E-001  2.50470492E-001  1.24658744E-001
Al  5.00827789E-001  3.74981743E-001  1.24961642E-001
Al  5.00323898E-001  2.48395909E-001  2.50009018E-001
Al  6.25682326E-001  3.75393565E-001  2.49924297E-001
Al  6.26439960E-001  2.49893711E-001  3.76704831E-001
Al  5.01046140E-001  3.75547902E-001  3.75056542E-001
Al  4.97504522E-001  2.49980789E-001  4.98951678E-001
Al  6.27367845E-001  3.73253917E-001  4.99916427E-001
Al  6.27475454E-001  2.49747724E-001  6.24549151E-001
Al  4.99981878E-001  3.72761831E-001  6.25089164E-001
Al  4.97872014E-001  2.52499610E-001  7.50316996E-001
Al  6.23602445E-001  3.74934318E-001  7.51258559E-001
Al  6.24840221E-001  2.52020967E-001  8.75258660E-001
Al  4.97888197E-001  3.72507140E-001  8.73939167E-001
Al  5.00037670E-001  4.99990368E-001  2.44034921E-003
Al  6.25484592E-001  6.24731938E-001  1.60741610E-004
Al  6.22846825E-001  4.99944031E-001  1.23277008E-001
Al  5.02336591E-001  6.24732562E-001  1.23580823E-001
Al  4.99557644E-001  4.99803287E-001  2.49906263E-001
Al  6.25008378E-001  6.25156571E-001  2.48808775E-001
Al  6.23460304E-001  5.00663611E-001  3.74760119E-001
Al  4.97509156E-001  6.26105573E-001  3.74991500E-001
Al  5.00924036E-001  5.00477369E-001  4.97513953E-001
Al  6.24757753E-001  6.25566440E-001  4.97500722E-001
Al  6.23248750E-001  4.97567263E-001  6.23123259E-001
Al  5.02158247E-001  6.24970419E-001  6.24933631E-001
Al  5.00217076E-001  4.99536429E-001  7.50008383E-001
Al  6.24443556E-001  6.26228512E-001  7.52294083E-001
Al  6.25186358E-001  4.99120029E-001  8.74887964E-001
Al  4.99977752E-001  6.25305971E-001  8.73713128E-001
Al  5.01630194E-001  7.47767795E-001  4.44166839E-005
Al  6.24991619E-001  8.74904332E-001  -2.03151210E-005
Al  6.25801670E-001  7.49973517E-001  1.24991301E-001
Al  5.00564023E-001  8.73891356E-001  1.26828503E-001
Al  4.99752912E-001  7.48243713E-001  2.52451963E-001
Al  6.24981499E-001  8.72623816E-001  2.48483500E-001
Al  6.24115631E-001  7.49843076E-001  3.74869935E-001
Al  5.02253279E-001  8.74775902E-001  3.77469370E-001
Al  5.01696500E-001  7.49990736E-001  4.99978198E-001
Al  6.25499389E-001  8.75031040E-001  5.00608229E-001
Al  6.24038569E-001  7.49948356E-001  6.26452372E-001
Al  4.99957529E-001  8.72500013E-001  6.25599265E-001
Al  4.99229965E-001  7.49981015E-001  7.50018231E-001
Al  6.22709884E-001  8.74830871E-001  7.50670213E-001
Al  6.25024090E-001  7.52256745E-001  8.73866508E-001
Al  4.99402695E-001  8.75008415E-001  8.75039463E-001
Al  7.49091368E-001  1.36868308E-003  8.77237519E-004
Al  8.74459082E-001  1.25355275E-001  -2.40704701E-003
Al  8.74411139E-001  -1.98684260E-003  1.24931315E-001
Al  7.49976175E-001  1.22653386E-001  1.24990174E-001
Al  7.47964467E-001  1.96374483E-003  2.51212143E-001
Al  8.75008626E-001  1.24981634E-001  2.49981730E-001
Al  8.73779356E-001  -2.32757370E-004  3.72552129E-001
Al  7.50129797E-001  1.25161998E-001  3.74968403E-001
Al  7.49991617E-001  1.23661075E-003  5.01868273E-001
Al  8.75324140E-001  1.24896265E-001  4.97541831E-001
Al  8.73387603E-001  -7.53906841E-005  6.24951121E-001
Al  7.48025099E-001  1.24991156E-001  6.27356234E-001
Al  7.50018733E-001  -6.96556230E-004  7.49735325E-001
Al  8.75026276E-001  1.25702627E-001  7.50347335E-001
Al  8.75057365E-001  1.35506207E-003  8.75729107E-001
Al  7.49948022E-001  1.27163399E-001  8.72751661E-001
Al  7.49575014E-001  2.52232048E-001  2.22872287E-003
Al  8.75059883E-001  3.72912142E-001  -1.54066061E-003
Al  8.77017355E-001  2.51803342E-001  1.25018446E-001
Al  7.48365342E-001  3.74981890E-001  1.24303930E-001
Al  7.50383428E-001  2.49948915E-001  2.52451454E-001
Al  8.75610158E-001  3.76914719E-001  2.49951165E-001
Al  8.76471050E-001  2.49952562E-001  3.73146826E-001
Al  7.47698054E-001  3.72533907E-001  3.76250259E-001
Al  7.49206930E-001  2.47524455E-001  4.99991613E-001
Al  8.75100292E-001  3.72592612E-001  4.98388929E-001
Al  8.75185961E-001  2.47514041E-001  6.27204105E-001
Al  7.52203009E-001  3.74981708E-001  6.25018162E-001
Al  7.51511108E-001  2.50043531E-001  7.48195637E-001
Al  8.73396194E-001  3.75018721E-001  7.50098187E-001
Al  8.73060992E-001  2.49831593E-001  8.74524556E-001
Al  7.49425954E-001  3.74258614E-001  8.75339410E-001
Al  7.49981625E-001  5.02153565E-001  1.62366651E-003
Al  8.77067363E-001  6.23643637E-001  3.19717678E-005
Al  8.77097259E-001  5.01003725E-001  1.22510532E-001
Al  7.48581398E-001  6.24791728E-001  1.23792071E-001
Al  7.47573229E-001  5.01826233E-001  2.50067954E-001
Al  8.72640570E-001  6.25293070E-001  2.50172674E-001
Al  8.75018109E-001  5.00311642E-001  3.72506198E-001
Al  7.49912828E-001  6.24038646E-001  3.75180711E-001
Al  7.50852230E-001  4.99405049E-001  4.98822969E-001
Al  8.74980349E-001  6.24971762E-001  5.00086649E-001
Al  8.77337425E-001  5.02312295E-001  6.26883406E-001
Al  7.50192477E-001  6.23227663E-001  6.26735218E-001
Al  7.48915288E-001  4.97921977E-001  7.48614020E-001
Al  8.77487911E-001  6.24486165E-001  7.49991555E-001
Al  8.72569430E-001  4.98406066E-001  8.74152248E-001
Al  7.50084095E-001  6.24613809E-001  8.74136102E-001
Al  7.52303306E-001  7.51941629E-001  6.99720978E-004
Al  8.74785070E-001  8.75008375E-001  -8.44114591E-006
Al  8.76140510E-001  7.49030337E-001  1.25766178E-001
Al  7.47517006E-001  8.74960915E-001  1.25328331E-001
Al  7.52394262E-001  7.48981824E-001  2.49094101E-001
Al  8.76534340E-001  8.73906634E-001  2.49207521E-001
Al  8.74383883E-001  7.50031701E-001  3.74453265E-001
Al  7.48033508E-001  8.75890991E-001  3.76874845E-001
Al  7.52400471E-001  7.49847812E-001  4.99963698E-001
Al  8.74197764E-001  8.72500500E-001  4.97690349E-001
Al  8.73053327E-001  7.51216776E-001  6.23432093E-001
Al  7.49424960E-001  8.75648757E-001  6.26921199E-001
Al  7.49267223E-001  7.52387293E-001  7.52013415E-001
Al  8.75008819E-001  8.74921153E-001  7.50040132E-001
Al  8.75018975E-001  7.50057365E-001  8.76468963E-001
Al  7.52499641E-001  8.72837549E-001  8.72686316E-001
K_POINTS automatic
2 2 2 1 1 1
