&CONTROL
restart_mode = 'from_scratch',
calculation = 'scf',
outdir = '/gpfs/bb/bxp912/scratch',
pseudo_dir = '/gpfs/bb/bxp912/pseudopotentials',
prefix = '2.48000000E-001',
etot_conv_thr = 1.00000000E-007,
forc_conv_thr = 1.00000000E-007,
nstep = 200,
tprnfor = .true.,
tstress = .true.,
disk_io = 'low',
/
&SYSTEM
ibrav = 14,
celldm(1) = 3.05001797E+001,
celldm(2) = 1.00000000E+000,
celldm(3) = 1.00000000E+000,
celldm(4) = 0.00000000E+000,
celldm(5) = 0.00000000E+000,
celldm(6) = 0.00000000E+000,
nat = 256,
ntyp = 1,
ecutwfc = 35,
ecutrho = 208,
occupations = 'smearing',
smearing = 'mv',
degauss = 5.00000007E-002,
/
&ELECTRONS
diagonalization = 'david',
mixing_mode = plain,
mixing_beta = 6.99999988E-001,
conv_thr = 1.00000000E-007,
/
&IONS
ion_dynamics = 'bfgs',
/
&CELL
cell_dynamics = 'bfgs',
press = 0.00000000E+000,
cell_factor = 2.00000000E+000,
/
ATOMIC_SPECIES
Al  2.69815390E+001  Al.pbe-n-kjpaw_psl.0.1.UPF
ATOMIC_POSITIONS crystal
Al  7.76598757E-004  7.78497811E-005  -4.35063299E-004
Al  1.25019315E-001  1.24266729E-001  -1.75399299E-003
Al  1.24966895E-001  -4.07360380E-004  1.24991331E-001
Al  2.14090894E-003  1.26134636E-001  1.24919143E-001
Al  -3.89936587E-004  1.24825545E-004  2.49990378E-001
Al  1.25008577E-001  1.24754493E-001  2.49788490E-001
Al  1.24982501E-001  2.49101556E-003  3.75018920E-001
Al  1.71366654E-003  1.22699480E-001  3.73606973E-001
Al  -2.79378289E-004  -1.53309733E-003  5.00018161E-001
Al  1.25031349E-001  1.27479351E-001  4.99991630E-001
Al  1.24621193E-001  5.32787224E-004  6.26156477E-001
Al  -1.66050390E-003  1.23095963E-001  6.26407398E-001
Al  1.35477434E-003  -2.49243206E-003  7.52301001E-001
Al  1.22525996E-001  1.24991547E-001  7.47501810E-001
Al  1.24528804E-001  3.72883809E-004  8.77490685E-001
Al  -2.24085853E-003  1.23332519E-001  8.75018903E-001
Al  -4.95503484E-005  2.51587134E-001  -1.89970127E-005
Al  1.24982878E-001  3.73850390E-001  1.37514644E-003
Al  1.23435992E-001  2.50093056E-001  1.24940014E-001
Al  -1.87345508E-003  3.75219080E-001  1.26731157E-001
Al  -2.01277661E-004  2.47589536E-001  2.50750785E-001
Al  1.25593615E-001  3.77334919E-001  2.50027138E-001
Al  1.25008370E-001  2.47641809E-001  3.74981728E-001
Al  -1.86108057E-004  3.76850793E-001  3.74981199E-001
Al  -1.37069990E-003  2.52493134E-001  5.01195441E-001
Al  1.23027166E-001  3.74829527E-001  4.99664642E-001
Al  1.25051578E-001  2.47893644E-001  6.25747003E-001
Al  -1.88272744E-004  3.73398259E-001  6.27482284E-001
Al  2.42275103E-003  2.49981258E-001  7.51296208E-001
Al  1.24938848E-001  3.75531316E-001  7.51287165E-001
Al  1.25008429E-001  2.47751211E-001  8.72600599E-001
Al  -2.95059876E-005  3.74991630E-001  8.75809765E-001
Al  -2.12354650E-003  4.99094341E-001  2.37120282E-003
Al  1.26291152E-001  6.26070815E-001  -2.45049922E-003
Al  1.24292731E-001  5.00087230E-001  1.27496863E-001
Al  -1.96226533E-005  6.24946686E-001  1.25140435E-001
Al  -2.49806063E-003  4.98087614E-001  2.49975807E-001
Al  1.22722250E-001  6.24979775E-001  2.49462236E-001
Al  1.26013504E-001  4.99973526E-001  3.77355121E-001
Al  9.29668981E-005  6.24813699E-001  3.72500847E-001
Al  1.19708932E-004  5.01085026E-001  5.00018714E-001
Al  1.24119751E-001  6.24749066E-001  5.02494320E-001
Al  1.25592561E-001  5.00308033E-001  6.24991001E-001
Al  -1.03650152E-003  6.22792309E-001  6.24650066E-001
Al  2.00949163E-004  5.00955935E-001  7.48439230E-001
Al  1.24733133E-001  6.24938608E-001  7.47559864E-001
Al  1.24309266E-001  5.00537280E-001  8.75948456E-001
Al  9.42757788E-006  6.23458008E-001  8.74578034E-001
Al  1.81151879E-005  7.50188489E-001  1.66558249E-003
Al  1.24933438E-001  8.75080777E-001  -4.94253779E-004
Al  1.24922751E-001  7.49990964E-001  1.24820172E-001
Al  5.93953535E-004  8.72843092E-001  1.22793373E-001
Al  -3.69167004E-004  7.49936528E-001  2.50117231E-001
Al  1.24853232E-001  8.74494819E-001  2.48408367E-001
Al  1.24991570E-001  7.49602422E-001  3.74679990E-001
Al  -2.09261921E-005  8.75026088E-001  3.74967315E-001
Al  2.75225744E-004  7.50139273E-001  4.99821629E-001
Al  1.25448839E-001  8.75043815E-001  4.97916133E-001
Al  1.24917089E-001  7.50209879E-001  6.24979048E-001
Al  -2.49114770E-003  8.74991082E-001  6.25009494E-001
Al  9.05869316E-005  7.49864152E-001  7.47615166E-001
Al  1.24584300E-001  8.74679225E-001  7.47885279E-001
Al  1.24981886E-001  7.47878205E-001  8.74282612E-001
Al  -4.71287133E-004  8.77019282E-001  8.75297579E-001
Al  2.50008451E-001  -1.43268391E-004  -9.99462739E-004
Al  3.75060442E-001  1.27493934E-001  1.55683925E-003
Al  3.74466122E-001  8.37026113E-006  1.24296534E-001
Al  2.49919410E-001  1.24897301E-001  1.25029939E-001
Al  2.50027564E-001  -1.40426998E-003  2.48150717E-001
Al  3.74865226E-001  1.25183902E-001  2.52437008E-001
Al  3.72674448E-001  -1.30711022E-003  3.74981125E-001
Al  2.49796757E-001  1.26458124E-001  3.74695094E-001
Al  2.48356447E-001  -1.44471191E-004  4.99795752E-001
Al  3.76717785E-001  1.22648330E-001  5.01240195E-001
Al  3.75009594E-001  1.90163152E-005  6.24418008E-001
Al  2.49939281E-001  1.22778334E-001  6.22543168E-001
Al  2.49807489E-001  -9.79608888E-004  7.47588963E-001
Al  3.74774744E-001  1.25136947E-001  7.49834540E-001
Al  3.73002228E-001  1.02805180E-003  8.74818434E-001
Al  2.50187747E-001  1.24961147E-001  8.76727124E-001
Al  2.50925787E-001  2.49736486E-001  1.46694627E-004
Al  3.74757957E-001  3.72606873E-001  -1.25592114E-004
Al  3.74947355E-001  2.50774956E-001  1.25671797E-001
Al  2.49917339E-001  3.77112245E-001  1.24228144E-001
Al  2.47607399E-001  2.49991392E-001  2.51168526E-001
Al  3.76354348E-001  3.72751748E-001  2.48224035E-001
Al  3.76872966E-001  2.51231817E-001  3.76869365E-001
Al  2.50329103E-001  3.74900816E-001  3.72640851E-001
Al  2.50357483E-001  2.47502500E-001  5.02293652E-001
Al  3.75018116E-001  3.77276477E-001  5.01615405E-001
Al  3.73429337E-001  2.50287767E-001  6.25018563E-001
Al  2.49872012E-001  3.72533942E-001  6.23603498E-001
Al  2.50320065E-001  2.51761081E-001  7.49524495E-001
Al  3.73514697E-001  3.74676642E-001  7.50166769E-001
Al  3.73947079E-001  2.51292232E-001  8.75054086E-001
Al  2.50063148E-001  3.74771592E-001  8.74940261E-001
Al  2.50043334E-001  4.99187428E-001  2.49976298E-003
Al  3.77305123E-001  6.25008648E-001  -2.02728104E-005
Al  3.75170185E-001  5.00008379E-001  1.24978559E-001
Al  2.49087463E-001  6.25185911E-001  1.24856327E-001
Al  2.48656696E-001  4.99874278E-001  2.50019777E-001
Al  3.75391339E-001  6.22655989E-001  2.50067880E-001
Al  3.72515253E-001  4.97500524E-001  3.74523923E-001
Al  2.49953519E-001  6.25393062E-001  3.74981569E-001
Al  2.50188585E-001  4.97514511E-001  5.00025174E-001
Al  3.76782926E-001  6.25225822E-001  5.00365936E-001
Al  3.77273926E-001  5.00019142E-001  6.25705171E-001
Al  2.51369379E-001  6.25018213E-001  6.24862783E-001
Al  2.49974257E-001  4.99949820E-001  7.51079318E-001
Al  3.74683475E-001  6.25218992E-001  7.47595643E-001
Al  3.74981825E-001  5.00672492E-001  8.74980697E-001
Al  2.49991470E-001  6.25218132E-001  8.73479685E-001
Al  2.52435369E-001  7.51249307E-001  -1.46722657E-004
Al  3.76308584E-001  8.77479050E-001  -2.11828550E-004
Al  3.73760532E-001  7.52485281E-001  1.25039989E-001
Al  2.47782306E-001  8.76976383E-001  1.23835736E-001
Al  2.51682554E-001  7.47949502E-001  2.52338250E-001
Al  3.74464541E-001  8.74171070E-001  2.49979957E-001
Al  3.75008505E-001  7.52456465E-001  3.74269847E-001
Al  2.52357144E-001  8.77080927E-001  3.75037874E-001
Al  2.50593852E-001  7.50043058E-001  5.00174301E-001
Al  3.74981677E-001  8.74912398E-001  5.00538759E-001
Al  3.72516692E-001  7.50540686E-001  6.24900796E-001
Al  2.47597617E-001  8.72533578E-001  6.25128806E-001
Al  2.47505975E-001  7.47515243E-001  7.49690436E-001
Al  3.74626377E-001  8.74827505E-001  7.50115289E-001
Al  3.75749351E-001  7.50293197E-001  8.77494312E-001
Al  2.52111284E-001  8.75647302E-001  8.74396092E-001
Al  5.02378662E-001  -5.07909769E-004  2.05482983E-003
Al  6.24510437E-001  1.25008791E-001  -8.63877920E-005
Al  6.25101442E-001  -3.78650513E-005  1.24480474E-001
Al  5.00071877E-001  1.27456655E-001  1.23901104E-001
Al  5.00268690E-001  -2.31435796E-003  2.50031303E-001
Al  6.27330990E-001  1.25415210E-001  2.50189604E-001
Al  6.25528054E-001  -4.56027328E-004  3.74991469E-001
Al  5.01163272E-001  1.24981409E-001  3.74917333E-001
Al  5.00049996E-001  -1.27134823E-004  5.02450506E-001
Al  6.25433287E-001  1.24948131E-001  5.00267708E-001
Al  6.25028864E-001  1.96799300E-003  6.25754754E-001
Al  5.00463208E-001  1.25018143E-001  6.25457576E-001
Al  5.02498817E-001  1.55555206E-003  7.49934020E-001
Al  6.26889825E-001  1.25008989E-001  7.50128689E-001
Al  6.24991544E-001  -2.47111872E-003  8.73565890E-001
Al  5.00023354E-001  1.27109816E-001  8.74636017E-001
Al  5.00079932E-001  2.51500823E-001  -1.73633407E-004
Al  6.24678217E-001  3.74794606E-001  2.44725164E-003
Al  6.22530613E-001  2.51795051E-001  1.24878581E-001
Al  4.97545993E-001  3.77498768E-001  1.27497775E-001
Al  5.02303993E-001  2.52353917E-001  2.52336683E-001
Al  6.27234186E-001  3.72977036E-001  2.51451453E-001
Al  6.25476583E-001  2.49973245E-001  3.77458268E-001
Al  4.99718994E-001  3.75140021E-001  3.74632006E-001
Al  5.00057469E-001  2.48116950E-001  5.02435121E-001
Al  6.25105901E-001  3.74892775E-001  4.99783135E-001
Al  6.25038433E-001  2.51937581E-001  6.24144593E-001
Al  4.98055871E-001  3.72527461E-001  6.25133544E-001
Al  4.99626073E-001  2.52368716E-001  7.51407113E-001
Al  6.27477541E-001  3.75471697E-001  7.49372127E-001
Al  6.24330367E-001  2.47777091E-001  8.75647432E-001
Al  5.00018215E-001  3.74901725E-001  8.74429615E-001
Al  5.00117538E-001  5.00008448E-001  1.06511458E-003
Al  6.23977301E-001  6.25047735E-001  4.58451152E-005
Al  6.24991415E-001  4.99676903E-001  1.26696108E-001
Al  4.97504855E-001  6.24973818E-001  1.24982412E-001
Al  4.99659516E-001  5.02469284E-001  2.47768737E-001
Al  6.23347872E-001  6.25017653E-001  2.49887595E-001
Al  6.26975758E-001  5.01890537E-001  3.77190533E-001
Al  5.02264222E-001  6.25022332E-001  3.77493669E-001
Al  4.99857689E-001  4.99098332E-001  4.99552398E-001
Al  6.23647242E-001  6.24126822E-001  4.97660709E-001
Al  6.23949798E-001  5.00019225E-001  6.26726680E-001
Al  5.01644696E-001  6.27204136E-001  6.24233299E-001
Al  5.02488620E-001  4.99981409E-001  7.51717632E-001
Al  6.23106055E-001  6.22552839E-001  7.48114859E-001
Al  6.23862265E-001  4.99981740E-001  8.74977802E-001
Al  5.02008298E-001  6.25607204E-001  8.73533205E-001
Al  5.01685049E-001  7.47608634E-001  8.61777231E-006
Al  6.26329137E-001  8.74924432E-001  2.07684703E-003
Al  6.25046954E-001  7.49941949E-001  1.23609054E-001
Al  4.99870586E-001  8.75070270E-001  1.26520878E-001
Al  5.01766400E-001  7.50348246E-001  2.49517804E-001
Al  6.23617634E-001  8.74769185E-001  2.52414355E-001
Al  6.26016933E-001  7.48267216E-001  3.75156706E-001
Al  5.00008621E-001  8.74129980E-001  3.74936587E-001
Al  5.00008380E-001  7.49981875E-001  4.97845034E-001
Al  6.25747855E-001  8.75018484E-001  5.00832476E-001
Al  6.25057399E-001  7.49050765E-001  6.25304622E-001
Al  4.98257025E-001  8.74740780E-001  6.25092772E-001
Al  5.00034052E-001  7.49727067E-001  7.51293266E-001
Al  6.25041241E-001  8.75981161E-001  7.49979485E-001
Al  6.24437707E-001  7.49991264E-001  8.76515614E-001
Al  5.02134054E-001  8.74410881E-001  8.74947284E-001
Al  7.48657639E-001  1.12803657E-004  1.24226399E-004
Al  8.77495042E-001  1.24268769E-001  -1.95578080E-005
Al  8.77419999E-001  1.99608271E-005  1.24981885E-001
Al  7.49798588E-001  1.23701268E-001  1.25058118E-001
Al  7.49952465E-001  -8.75327252E-006  2.49663633E-001
Al  8.74756102E-001  1.25164246E-001  2.50050327E-001
Al  8.76796102E-001  -6.24269560E-004  3.72513777E-001
Al  7.47666571E-001  1.25009070E-001  3.76811100E-001
Al  7.48081363E-001  -2.13702543E-003  4.99929911E-001
Al  8.74545414E-001  1.23864049E-001  5.02497156E-001
Al  8.72739636E-001  9.50687201E-004  6.24930645E-001
Al  7.49794649E-001  1.26265184E-001  6.25533274E-001
Al  7.49991605E-001  -2.34387471E-003  7.50315427E-001
Al  8.74200432E-001  1.26031596E-001  7.51516346E-001
Al  8.74792224E-001  -3.18585544E-005  8.73591080E-001
Al  7.48764025E-001  1.25018320E-001  8.76975701E-001
Al  7.49703349E-001  2.50151143E-001  -2.47585836E-003
Al  8.72501649E-001  3.72843123E-001  -2.38108086E-003
Al  8.76650535E-001  2.50326892E-001  1.24945803E-001
Al  7.47888276E-001  3.75071952E-001  1.25018338E-001
Al  7.50018206E-001  2.52011239E-001  2.50231472E-001
Al  8.73693223E-001  3.73293075E-001  2.50060155E-001
Al  8.75075313E-001  2.50079638E-001  3.76642804E-001
Al  7.49806726E-001  3.74962248E-001  3.75164189E-001
Al  7.50684702E-001  2.49210153E-001  5.02120564E-001
Al  8.73272797E-001  3.74864162E-001  5.02249687E-001
Al  8.74437464E-001  2.49667454E-001  6.25297341E-001
Al  7.50051020E-001  3.76200137E-001  6.23507167E-001
Al  7.51981643E-001  2.50278238E-001  7.51616019E-001
Al  8.77473038E-001  3.74504137E-001  7.51832946E-001
Al  8.74990733E-001  2.50977056E-001  8.74921720E-001
Al  7.49087239E-001  3.75009283E-001  8.74755832E-001
Al  7.49551681E-001  4.99242759E-001  -4.19155930E-004
Al  8.72838035E-001  6.23941502E-001  1.78435346E-003
Al  8.74501850E-001  4.98973954E-001  1.26084622E-001
Al  7.49978117E-001  6.23169538E-001  1.24728759E-001
Al  7.52430287E-001  4.99974443E-001  2.49614828E-001
Al  8.75048347E-001  6.25298555E-001  2.49776852E-001
Al  8.75031832E-001  5.01655268E-001  3.75126041E-001
Al  7.50150032E-001  6.25020213E-001  3.72613584E-001
Al  7.49674147E-001  5.02380067E-001  4.99966386E-001
Al  8.77453487E-001  6.27468438E-001  5.00226844E-001
Al  8.73281733E-001  4.99980126E-001  6.24596562E-001
Al  7.49813827E-001  6.25268574E-001  6.27110230E-001
Al  7.47806464E-001  4.98149714E-001  7.52419249E-001
Al  8.74991168E-001  6.24932484E-001  7.49711191E-001
Al  8.75242675E-001  4.98129410E-001  8.74991248E-001
Al  7.49963393E-001  6.25493869E-001  8.76210979E-001
Al  7.50104678E-001  7.52455011E-001  1.87713810E-005
Al  8.75270100E-001  8.73650650E-001  -5.52801526E-005
Al  8.75254445E-001  7.50008530E-001  1.24991029E-001
Al  7.50878494E-001  8.72502909E-001  1.25057354E-001
Al  7.50425878E-001  7.50717620E-001  2.48401945E-001
Al  8.74969035E-001  8.75105238E-001  2.47525312E-001
Al  8.74220286E-001  7.50025632E-001  3.72910492E-001
Al  7.50037976E-001  8.74668888E-001  3.74158825E-001
Al  7.49898119E-001  7.48055697E-001  5.00018314E-001
Al  8.74309013E-001  8.74682614E-001  5.00612908E-001
Al  8.72748037E-001  7.52016849E-001  6.26524086E-001
Al  7.47507141E-001  8.75421635E-001  6.26318630E-001
Al  7.50039701E-001  7.51366505E-001  7.50600944E-001
Al  8.73137780E-001  8.73837912E-001  7.49751500E-001
Al  8.74792639E-001  7.49643385E-001  8.73792894E-001
Al  7.48131257E-001  8.74991381E-001  8.73715204E-001
K_POINTS automatic
2 2 2 1 1 1
