&CONTROL
restart_mode = 'from_scratch',
calculation = 'scf',
outdir = '/gpfs/bb/bxp912/scratch',
pseudo_dir = '/gpfs/bb/bxp912/pseudopotentials',
prefix = '2.48000000E-001',
etot_conv_thr = 1.00000000E-007,
forc_conv_thr = 1.00000000E-007,
nstep = 200,
tprnfor = .true.,
tstress = .true.,
disk_io = 'low',
/
&SYSTEM
ibrav = 14,
celldm(1) = 3.05001797E+001,
celldm(2) = 1.00000000E+000,
celldm(3) = 1.00000000E+000,
celldm(4) = 0.00000000E+000,
celldm(5) = 0.00000000E+000,
celldm(6) = 0.00000000E+000,
nat = 256,
ntyp = 1,
ecutwfc = 35,
ecutrho = 208,
occupations = 'smearing',
smearing = 'mv',
degauss = 5.00000007E-002,
/
&ELECTRONS
diagonalization = 'david',
mixing_mode = plain,
mixing_beta = 6.99999988E-001,
conv_thr = 1.00000000E-007,
/
&IONS
ion_dynamics = 'bfgs',
/
&CELL
cell_dynamics = 'bfgs',
press = 0.00000000E+000,
cell_factor = 2.00000000E+000,
/
ATOMIC_SPECIES
Al  2.69815390E+001  Al.pbe-n-kjpaw_psl.0.1.UPF
ATOMIC_POSITIONS crystal
Al  8.38027135E-006  -1.28473052E-003  -7.31089871E-004
Al  1.24698471E-001  1.26056940E-001  1.12613937E-004
Al  1.27367904E-001  4.71740085E-004  1.24981466E-001
Al  1.39689130E-004  1.25055762E-001  1.27391174E-001
Al  -1.19378270E-004  -2.23655328E-003  2.47974685E-001
Al  1.24893024E-001  1.22619778E-001  2.49082984E-001
Al  1.25616634E-001  5.99392013E-005  3.72529199E-001
Al  -1.57696222E-003  1.22995414E-001  3.75797500E-001
Al  1.87544415E-005  -1.01074047E-003  4.97510631E-001
Al  1.26106538E-001  1.24015452E-001  5.00903037E-001
Al  1.24945804E-001  1.26560016E-003  6.25101179E-001
Al  4.11465907E-004  1.24742898E-001  6.27468585E-001
Al  2.27692905E-003  -2.13182385E-004  7.50009171E-001
Al  1.22512732E-001  1.24991578E-001  7.49955489E-001
Al  1.24967941E-001  1.19347870E-003  8.75019177E-001
Al  2.25282774E-004  1.25048960E-001  8.75749516E-001
Al  2.44527195E-003  2.50018600E-001  1.26297215E-003
Al  1.25019077E-001  3.77257115E-001  -4.89319045E-004
Al  1.25058764E-001  2.50104482E-001  1.25771317E-001
Al  1.62414538E-003  3.75469230E-001  1.26235833E-001
Al  -7.67413380E-004  2.49975019E-001  2.50028304E-001
Al  1.25117194E-001  3.75328597E-001  2.49958766E-001
Al  1.22908969E-001  2.50729194E-001  3.73931152E-001
Al  -1.57338510E-004  3.76085658E-001  3.75208628E-001
Al  1.50083488E-004  2.49109401E-001  4.98205340E-001
Al  1.24495301E-001  3.72508282E-001  4.97502387E-001
Al  1.25073308E-001  2.50078656E-001  6.27460752E-001
Al  -5.19651500E-004  3.77497358E-001  6.25018413E-001
Al  -2.28292953E-003  2.50503328E-001  7.48316917E-001
Al  1.26649620E-001  3.76578204E-001  7.47573693E-001
Al  1.27417431E-001  2.50673376E-001  8.75316000E-001
Al  5.44637358E-004  3.73542830E-001  8.76891632E-001
Al  -2.49237358E-003  5.00055341E-001  4.66672902E-004
Al  1.24981887E-001  6.25073492E-001  1.47371527E-003
Al  1.25008451E-001  4.98611643E-001  1.24927890E-001
Al  1.28925065E-003  6.25062323E-001  1.25024232E-001
Al  1.83259868E-005  5.00008883E-001  2.49740898E-001
Al  1.26951062E-001  6.25139340E-001  2.50306068E-001
Al  1.23473845E-001  4.99975582E-001  3.75037119E-001
Al  -9.08662845E-004  6.22503084E-001  3.72782615E-001
Al  -9.86629380E-004  5.00459183E-001  5.00018779E-001
Al  1.25260976E-001  6.24991502E-001  5.00070612E-001
Al  1.25024081E-001  5.00751124E-001  6.24958360E-001
Al  -2.04612583E-003  6.25029140E-001  6.24422707E-001
Al  1.16112019E-003  5.00022823E-001  7.49948155E-001
Al  1.22504369E-001  6.24116280E-001  7.48224037E-001
Al  1.23369020E-001  5.01550957E-001  8.77392379E-001
Al  8.20769004E-004  6.25391934E-001  8.73657286E-001
Al  2.09416005E-004  7.50303873E-001  -1.37722334E-004
Al  1.24443797E-001  8.74624173E-001  3.31729782E-004
Al  1.25029930E-001  7.51331912E-001  1.24962478E-001
Al  -1.58766972E-003  8.73731269E-001  1.25110355E-001
Al  1.23444597E-003  7.47605791E-001  2.47605424E-001
Al  1.24657996E-001  8.73451306E-001  2.49920765E-001
Al  1.25020139E-001  7.47686824E-001  3.75197275E-001
Al  8.45156386E-006  8.75065668E-001  3.75285144E-001
Al  -2.26853769E-003  7.50008857E-001  4.98714365E-001
Al  1.24943332E-001  8.74866029E-001  5.00583125E-001
Al  1.24845440E-001  7.49875900E-001  6.25018384E-001
Al  2.39515606E-003  8.75725819E-001  6.25564705E-001
Al  2.14152108E-003  7.50080738E-001  7.51413715E-001
Al  1.24981890E-001  8.73669859E-001  7.51997653E-001
Al  1.22609833E-001  7.52198907E-001  8.76412033E-001
Al  -2.31614873E-004  8.74774475E-001  8.75094490E-001
Al  2.51529461E-001  2.48018619E-003  6.52024574E-004
Al  3.75018697E-001  1.24731326E-001  -8.92353705E-006
Al  3.75039169E-001  -9.13336682E-006  1.24771934E-001
Al  2.49991547E-001  1.22712652E-001  1.23478126E-001
Al  2.50009066E-001  1.19351185E-003  2.50058201E-001
Al  3.76997584E-001  1.24501551E-001  2.48703161E-001
Al  3.76804584E-001  -1.22851382E-003  3.75038672E-001
Al  2.50215327E-001  1.22523720E-001  3.74562215E-001
Al  2.49991116E-001  -2.23209198E-003  5.02104480E-001
Al  3.73785527E-001  1.24120719E-001  4.99155711E-001
Al  3.74912150E-001  -1.93308232E-003  6.25318014E-001
Al  2.52005567E-001  1.22930263E-001  6.24991503E-001
Al  2.52035838E-001  3.28781573E-004  7.47692322E-001
Al  3.73940490E-001  1.22501159E-001  7.50863798E-001
Al  3.74740939E-001  7.86591423E-004  8.75525305E-001
Al  2.51013668E-001  1.25057504E-001  8.72504429E-001
Al  2.49770499E-001  2.52458353E-001  1.97934307E-004
Al  3.75020978E-001  3.74981636E-001  2.49805388E-003
Al  3.74918327E-001  2.51802725E-001  1.24980542E-001
Al  2.49757294E-001  3.77201835E-001  1.23541118E-001
Al  2.51965527E-001  2.47527247E-001  2.49458295E-001
Al  3.77018786E-001  3.74602367E-001  2.51243832E-001
Al  3.75039813E-001  2.50584637E-001  3.75656660E-001
Al  2.49964586E-001  3.74292513E-001  3.77473399E-001
Al  2.50093251E-001  2.48782069E-001  5.00036224E-001
Al  3.77042313E-001  3.77324782E-001  5.00063900E-001
Al  3.75100823E-001  2.51440971E-001  6.24069602E-001
Al  2.49917933E-001  3.73935280E-001  6.22500039E-001
Al  2.49752881E-001  2.52493245E-001  7.51874804E-001
Al  3.77466835E-001  3.74929382E-001  7.52405387E-001
Al  3.72663346E-001  2.49975961E-001  8.75103147E-001
Al  2.49510050E-001  3.74865326E-001  8.72761276E-001
Al  2.50008568E-001  4.97612424E-001  2.02948561E-004
Al  3.74648655E-001  6.25110351E-001  -8.05943679E-004
Al  3.74961223E-001  5.00826445E-001  1.25018389E-001
Al  2.49074347E-001  6.24759309E-001  1.27201547E-001
Al  2.49879154E-001  4.99980694E-001  2.50177804E-001
Al  3.74885247E-001  6.27166882E-001  2.50320944E-001
Al  3.74344892E-001  5.00814744E-001  3.76038610E-001
Al  2.52311748E-001  6.24032638E-001  3.74562186E-001
Al  2.52499714E-001  4.97501450E-001  4.99932079E-001
Al  3.75182818E-001  6.27025590E-001  4.97728536E-001
Al  3.72816809E-001  5.00078869E-001  6.25009513E-001
Al  2.51759062E-001  6.23937678E-001  6.24460899E-001
Al  2.51609919E-001  5.01719799E-001  7.49732347E-001
Al  3.77462037E-001  6.23668803E-001  7.48184871E-001
Al  3.72595510E-001  5.00269148E-001  8.75873778E-001
Al  2.51846803E-001  6.22556938E-001  8.75744395E-001
Al  2.50900120E-001  7.50227790E-001  8.15051396E-004
Al  3.74991198E-001  8.75112228E-001  1.24721289E-003
Al  3.74802934E-001  7.49858567E-001  1.22677708E-001
Al  2.50204913E-001  8.73230109E-001  1.24580465E-001
Al  2.50065828E-001  7.48152649E-001  2.47848714E-001
Al  3.74978570E-001  8.74894940E-001  2.49981806E-001
Al  3.73468028E-001  7.47527551E-001  3.75018129E-001
Al  2.51651564E-001  8.76044540E-001  3.72768755E-001
Al  2.49611793E-001  7.50853977E-001  5.01727097E-001
Al  3.77398056E-001  8.72700355E-001  4.98929015E-001
Al  3.74981878E-001  7.49933317E-001  6.25671845E-001
Al  2.49933184E-001  8.77274599E-001  6.27424514E-001
Al  2.47834205E-001  7.47500124E-001  7.50087963E-001
Al  3.76593712E-001  8.74350728E-001  7.49991618E-001
Al  3.74869853E-001  7.50099719E-001  8.74664662E-001
Al  2.51533250E-001  8.74843503E-001  8.72761975E-001
Al  4.99429803E-001  1.82102040E-005  -6.09466675E-005
Al  6.23996551E-001  1.25365458E-001  -5.04334031E-005
Al  6.24462250E-001  1.32814127E-003  1.25227560E-001
Al  5.00037105E-001  1.25215130E-001  1.26176255E-001
Al  5.00181225E-001  -6.47379908E-004  2.49991627E-001
Al  6.25018307E-001  1.25008900E-001  2.52446630E-001
Al  6.22500739E-001  -3.19628576E-005  3.75219653E-001
Al  5.01595628E-001  1.23879963E-001  3.74648308E-001
Al  4.99793831E-001  -8.13397647E-004  5.01772842E-001
Al  6.24981751E-001  1.26030094E-001  4.98251388E-001
Al  6.26527228E-001  1.08009483E-003  6.24856456E-001
Al  5.00191403E-001  1.24964137E-001  6.22585490E-001
Al  4.99442654E-001  2.49983168E-003  7.51169012E-001
Al  6.22637392E-001  1.25662674E-001  7.49991512E-001
Al  6.27039246E-001  1.81181593E-003  8.75791423E-001
Al  5.00728253E-001  1.27033951E-001  8.74350048E-001
Al  4.97970418E-001  2.50260311E-001  -1.01804780E-003
Al  6.24875770E-001  3.75422443E-001  2.06697507E-003
Al  6.24944738E-001  2.49991501E-001  1.25896763E-001
Al  4.99723913E-001  3.75160162E-001  1.25494684E-001
Al  5.01812863E-001  2.49981719E-001  2.49941112E-001
Al  6.25153559E-001  3.72504929E-001  2.51056670E-001
Al  6.23095267E-001  2.51572530E-001  3.77374173E-001
Al  5.00975070E-001  3.75157678E-001  3.76106602E-001
Al  5.01993584E-001  2.50008839E-001  4.97664967E-001
Al  6.23628780E-001  3.72530304E-001  5.01025885E-001
Al  6.25125260E-001  2.48048612E-001  6.24991469E-001
Al  5.00026467E-001  3.74966518E-001  6.25108433E-001
Al  5.02138429E-001  2.50328662E-001  7.49806640E-001
Al  6.25190378E-001  3.73734608E-001  7.50025314E-001
Al  6.27206833E-001  2.50531151E-001  8.72706489E-001
Al  4.99917408E-001  3.75147570E-001  8.74593415E-001
Al  4.99537897E-001  4.99925005E-001  3.79182381E-005
Al  6.24904415E-001  6.22964773E-001  -6.91920258E-005
Al  6.25566577E-001  4.99912718E-001  1.22638274E-001
Al  4.99235150E-001  6.24841952E-001  1.25180182E-001
Al  5.00249984E-001  5.00143174E-001  2.50026473E-001
Al  6.23561545E-001  6.22522000E-001  2.49981764E-001
Al  6.25509353E-001  5.00419360E-001  3.76221493E-001
Al  4.97599964E-001  6.25453093E-001  3.74981443E-001
Al  4.98181462E-001  5.00031423E-001  4.99975875E-001
Al  6.25034811E-001  6.24109443E-001  5.00008688E-001
Al  6.25763702E-001  5.00265166E-001  6.25144235E-001
Al  4.99746242E-001  6.24970595E-001  6.22995303E-001
Al  5.02324716E-001  4.99981890E-001  7.49919319E-001
Al  6.24946588E-001  6.25028107E-001  7.50085951E-001
Al  6.25189321E-001  4.99565853E-001  8.75060465E-001
Al  4.99937955E-001  6.26860968E-001  8.77025855E-001
Al  4.97740491E-001  7.49841591E-001  3.59562560E-004
Al  6.24991625E-001  8.72563231E-001  -2.47966599E-003
Al  6.24914068E-001  7.49371127E-001  1.27433845E-001
Al  4.99168836E-001  8.75230066E-001  1.25031350E-001
Al  5.00008383E-001  7.50022815E-001  2.52077997E-001
Al  6.25886524E-001  8.74152096E-001  2.49938638E-001
Al  6.27038543E-001  7.51266375E-001  3.75134960E-001
Al  4.97541243E-001  8.77311300E-001  3.74971601E-001
Al  5.01139307E-001  7.48079982E-001  5.00036372E-001
Al  6.25730247E-001  8.77494600E-001  5.01573562E-001
Al  6.24935939E-001  7.49444756E-001  6.23479309E-001
Al  4.99847335E-001  8.74534817E-001  6.27464502E-001
Al  5.00179765E-001  7.49381827E-001  7.51967720E-001
Al  6.25897698E-001  8.76781704E-001  7.52397897E-001
Al  6.24377571E-001  7.47551756E-001  8.75675649E-001
Al  5.00955876E-001  8.74751857E-001  8.75160504E-001
Al  7.50220434E-001  9.56007421E-005  8.37461766E-006
Al  8.74934889E-001  1.25275344E-001  -3.35908871E-004
Al  8.74975220E-001  2.31966686E-003  1.24076976E-001
Al  7.51295505E-001  1.24371889E-001  1.26824940E-001
Al  7.49112275E-001  -2.28992423E-004  2.49547224E-001
Al  8.72603748E-001  1.24767774E-001  2.50024667E-001
Al  8.76191584E-001  -1.96581675E-005  3.76870096E-001
Al  7.50071455E-001  1.24966207E-001  3.77367536E-001
Al  7.47503211E-001  -3.27980299E-004  5.01268006E-001
Al  8.74991537E-001  1.25058008E-001  5.00062403E-001
Al  8.77457724E-001  8.66663458E-005  6.24916849E-001
Al  7.50018487E-001  1.24889141E-001  6.27497387E-001
Al  7.49927820E-001  -5.65557492E-004  7.51407293E-001
Al  8.73193570E-001  1.27471934E-001  7.49981863E-001
Al  8.75107646E-001  -2.76092013E-004  8.75761454E-001
Al  7.50465622E-001  1.27139958E-001  8.77375164E-001
Al  7.50675844E-001  2.52018998E-001  1.83376619E-005
Al  8.74991334E-001  3.72658686E-001  1.43585701E-003
Al  8.76742888E-001  2.50108276E-001  1.25146414E-001
Al  7.48031371E-001  3.73147629E-001  1.24871403E-001
Al  7.50126833E-001  2.50622782E-001  2.50400838E-001
Al  8.72623800E-001  3.77475393E-001  2.52400630E-001
Al  8.74667067E-001  2.49991513E-001  3.75084212E-001
Al  7.50122405E-001  3.72526555E-001  3.74911046E-001
Al  7.49849146E-001  2.50748810E-001  4.99958783E-001
Al  8.72614796E-001  3.76784177E-001  4.97501126E-001
Al  8.74980369E-001  2.48680462E-001  6.25363136E-001
Al  7.48285529E-001  3.73710780E-001  6.23237617E-001
Al  7.50075119E-001  2.51888800E-001  7.50092895E-001
Al  8.76189473E-001  3.75623023E-001  7.49964221E-001
Al  8.75020150E-001  2.47578380E-001  8.74981068E-001
Al  7.50018581E-001  3.75134781E-001  8.74829569E-001
Al  7.47763823E-001  5.02387650E-001  -1.22564380E-003
Al  8.75304492E-001  6.27361970E-001  -8.37824042E-006
Al  8.73338401E-001  5.00009084E-001  1.25018595E-001
Al  7.47512741E-001  6.24901240E-001  1.24728737E-001
Al  7.50122633E-001  5.01269666E-001  2.51969385E-001
Al  8.74880256E-001  6.23598616E-001  2.50707625E-001
Al  8.74954053E-001  5.00573575E-001  3.76203586E-001
Al  7.50008421E-001  6.22507686E-001  3.74991626E-001
Al  7.48973086E-001  4.99991630E-001  4.98426362E-001
Al  8.75179309E-001  6.26972476E-001  4.99944257E-001
Al  8.76712707E-001  4.99926936E-001  6.24991602E-001
Al  7.50330030E-001  6.24515107E-001  6.24981875E-001
Al  7.50873526E-001  5.01825920E-001  7.48102318E-001
Al  8.75960676E-001  6.24981435E-001  7.52407675E-001
Al  8.76075339E-001  4.98392103E-001  8.74966183E-001
Al  7.49837300E-001  6.25811182E-001  8.74833166E-001
Al  7.52498205E-001  7.50526163E-001  8.53364607E-006
Al  8.74058117E-001  8.76037688E-001  -2.49823541E-003
Al  8.74858243E-001  7.50018140E-001  1.24688106E-001
Al  7.49963657E-001  8.77480191E-001  1.26246446E-001
Al  7.47524907E-001  7.49440884E-001  2.50018144E-001
Al  8.75075864E-001  8.75940301E-001  2.49991296E-001
Al  8.77449867E-001  7.49427142E-001  3.76335342E-001
Al  7.52499373E-001  8.77495373E-001  3.74226614E-001
Al  7.50008634E-001  7.50118864E-001  5.01739783E-001
Al  8.75262078E-001  8.76455844E-001  5.00641884E-001
Al  8.75018293E-001  7.50572648E-001  6.27224888E-001
Al  7.47727999E-001  8.74964249E-001  6.25018182E-001
Al  7.49991022E-001  7.49150700E-001  7.49896477E-001
Al  8.77244424E-001  8.75030281E-001  7.49181441E-001
Al  8.74921626E-001  7.50039218E-001  8.75515614E-001
Al  7.50240823E-001  8.72626213E-001  8.74278640E-001
K_POINTS automatic
2 2 2 1 1 1
