&CONTROL
restart_mode = 'from_scratch',
calculation = 'scf',
outdir = '/gpfs/bb/bxp912/scratch',
pseudo_dir = '/gpfs/bb/bxp912/pseudopotentials',
prefix = '2.48000000E-001',
etot_conv_thr = 1.00000000E-007,
forc_conv_thr = 1.00000000E-007,
nstep = 200,
tprnfor = .true.,
tstress = .true.,
disk_io = 'low',
/
&SYSTEM
ibrav = 14,
celldm(1) = 3.05001797E+001,
celldm(2) = 1.00000000E+000,
celldm(3) = 1.00000000E+000,
celldm(4) = 0.00000000E+000,
celldm(5) = 0.00000000E+000,
celldm(6) = 0.00000000E+000,
nat = 256,
ntyp = 1,
ecutwfc = 35,
ecutrho = 208,
occupations = 'smearing',
smearing = 'mv',
degauss = 5.00000007E-002,
/
&ELECTRONS
diagonalization = 'david',
mixing_mode = plain,
mixing_beta = 6.99999988E-001,
conv_thr = 1.00000000E-007,
/
&IONS
ion_dynamics = 'bfgs',
/
&CELL
cell_dynamics = 'bfgs',
press = 0.00000000E+000,
cell_factor = 2.00000000E+000,
/
ATOMIC_SPECIES
Al  2.69815390E+001  Al.pbe-n-kjpaw_psl.0.1.UPF
ATOMIC_POSITIONS crystal
Al  4.84387715E-004  2.07318653E-005  1.61279522E-003
Al  1.25439582E-001  1.24052666E-001  3.29551026E-005
Al  1.23931982E-001  8.91414272E-004  1.24672116E-001
Al  1.19232476E-003  1.25115859E-001  1.22743270E-001
Al  1.19462444E-004  -1.40780944E-003  2.48601929E-001
Al  1.23230208E-001  1.24974430E-001  2.49051375E-001
Al  1.23161258E-001  -1.56572565E-003  3.74835639E-001
Al  1.18124635E-003  1.25235824E-001  3.74848154E-001
Al  -5.70890176E-004  2.61542461E-004  4.99755488E-001
Al  1.25786920E-001  1.24634842E-001  5.00790350E-001
Al  1.24991484E-001  -8.82120807E-005  6.24812317E-001
Al  1.73407237E-005  1.25806891E-001  6.25018395E-001
Al  -6.40868189E-005  3.76296217E-004  7.51162397E-001
Al  1.23136385E-001  1.22667704E-001  7.48361443E-001
Al  1.25252714E-001  1.31476701E-003  8.75930457E-001
Al  2.10592366E-003  1.24924291E-001  8.76571446E-001
Al  5.23029265E-004  2.49991026E-001  3.47123958E-004
Al  1.27429526E-001  3.72789070E-001  2.45897744E-003
Al  1.25854595E-001  2.51521509E-001  1.24873187E-001
Al  -1.18538941E-003  3.76522976E-001  1.24436636E-001
Al  8.79683909E-006  2.47717477E-001  2.48145592E-001
Al  1.26894674E-001  3.75733021E-001  2.50295131E-001
Al  1.24980512E-001  2.51286818E-001  3.74981041E-001
Al  -2.04728963E-003  3.75894173E-001  3.74981885E-001
Al  9.38736611E-004  2.51199525E-001  5.00199386E-001
Al  1.24387988E-001  3.76821189E-001  4.99530988E-001
Al  1.25247362E-001  2.50987028E-001  6.24991197E-001
Al  -2.02637341E-005  3.75272542E-001  6.25046061E-001
Al  -9.22027267E-006  2.50763814E-001  7.47501230E-001
Al  1.25076392E-001  3.76210563E-001  7.50048502E-001
Al  1.24824390E-001  2.52473411E-001  8.74113902E-001
Al  -8.87362589E-004  3.72928230E-001  8.72751564E-001
Al  1.65362674E-004  4.99063908E-001  3.20578479E-004
Al  1.25068987E-001  6.25305059E-001  2.31305770E-003
Al  1.23052502E-001  5.02111148E-001  1.26652176E-001
Al  8.50566692E-006  6.23099062E-001  1.26923558E-001
Al  9.09300689E-004  4.98618345E-001  2.52367694E-001
Al  1.27209634E-001  6.25578320E-001  2.50293950E-001
Al  1.26285015E-001  5.00644320E-001  3.75289512E-001
Al  -3.39241473E-004  6.25709673E-001  3.74724867E-001
Al  1.52935873E-004  4.99980253E-001  4.99900925E-001
Al  1.25995014E-001  6.26112254E-001  4.99073459E-001
Al  1.24781312E-001  5.02314910E-001  6.22806747E-001
Al  9.34940050E-006  6.26279852E-001  6.24991038E-001
Al  1.57458418E-004  5.00925687E-001  7.50831708E-001
Al  1.27379630E-001  6.23230829E-001  7.49741221E-001
Al  1.24981328E-001  5.00374785E-001  8.75775417E-001
Al  2.49774133E-003  6.22617924E-001  8.75934168E-001
Al  -1.44585473E-003  7.49990856E-001  8.31590488E-004
Al  1.24111004E-001  8.74018411E-001  2.07168633E-003
Al  1.27095773E-001  7.50009263E-001  1.22544600E-001
Al  3.35054039E-004  8.75101196E-001  1.26988883E-001
Al  1.95745470E-005  7.51050749E-001  2.49944396E-001
Al  1.22503044E-001  8.75470989E-001  2.47693646E-001
Al  1.22553641E-001  7.50018673E-001  3.75616392E-001
Al  -7.74335545E-004  8.75055661E-001  3.75520940E-001
Al  -2.70532677E-005  7.50018220E-001  5.00127055E-001
Al  1.23266241E-001  8.74981709E-001  5.00019574E-001
Al  1.25133390E-001  7.50112401E-001  6.26869076E-001
Al  8.38244034E-006  8.74981884E-001  6.26275223E-001
Al  -5.37948109E-004  7.47502645E-001  7.47517720E-001
Al  1.24981491E-001  8.75193589E-001  7.47620036E-001
Al  1.24093403E-001  7.49981731E-001  8.74536996E-001
Al  -2.47727786E-003  8.73311674E-001  8.75038578E-001
Al  2.50031113E-001  3.46206807E-004  1.83081084E-005
Al  3.74982915E-001  1.24981694E-001  9.94041291E-004
Al  3.74885244E-001  -1.10611038E-003  1.26130733E-001
Al  2.49991557E-001  1.27491150E-001  1.22501374E-001
Al  2.50704186E-001  3.58584606E-004  2.47947081E-001
Al  3.73059423E-001  1.24615416E-001  2.50008652E-001
Al  3.74340671E-001  2.48266391E-004  3.75096960E-001
Al  2.49898119E-001  1.25157921E-001  3.77499188E-001
Al  2.50419635E-001  8.82220090E-004  5.00019962E-001
Al  3.74770653E-001  1.25671800E-001  4.99036834E-001
Al  3.74551238E-001  2.49189006E-003  6.23670993E-001
Al  2.49893017E-001  1.22501833E-001  6.24765566E-001
Al  2.52247552E-001  -1.87618260E-005  7.50558397E-001
Al  3.75159637E-001  1.24106689E-001  7.50050530E-001
Al  3.74947727E-001  2.18964089E-003  8.74889349E-001
Al  2.50384151E-001  1.26034237E-001  8.75337514E-001
Al  2.49509576E-001  2.49990973E-001  9.92210152E-004
Al  3.75046112E-001  3.73348200E-001  -1.62420095E-003
Al  3.74905267E-001  2.50587124E-001  1.23136514E-001
Al  2.50117387E-001  3.74973136E-001  1.24943631E-001
Al  2.51635859E-001  2.50307138E-001  2.50008663E-001
Al  3.73705367E-001  3.74623581E-001  2.50205244E-001
Al  3.75491786E-001  2.50077357E-001  3.76611620E-001
Al  2.49818940E-001  3.74804549E-001  3.75008392E-001
Al  2.50240976E-001  2.50064444E-001  4.97565461E-001
Al  3.77172041E-001  3.75134188E-001  4.98441667E-001
Al  3.74764393E-001  2.50064327E-001  6.25865214E-001
Al  2.47523220E-001  3.75018150E-001  6.25903188E-001
Al  2.52400249E-001  2.49237866E-001  7.50135772E-001
Al  3.74259040E-001  3.77403781E-001  7.51187947E-001
Al  3.75040035E-001  2.48669880E-001  8.75659631E-001
Al  2.50916560E-001  3.75030055E-001  8.75443854E-001
Al  2.47695025E-001  4.99194918E-001  -1.82998653E-003
Al  3.75266430E-001  6.27070917E-001  -2.45857676E-003
Al  3.74957696E-001  4.98297448E-001  1.24428850E-001
Al  2.49883279E-001  6.24878380E-001  1.25008768E-001
Al  2.48954408E-001  5.00828536E-001  2.50109354E-001
Al  3.75062074E-001  6.24991208E-001  2.50008381E-001
Al  3.75175862E-001  5.02499261E-001  3.76525283E-001
Al  2.47714533E-001  6.24948905E-001  3.74453559E-001
Al  2.50120828E-001  5.00020182E-001  4.99412425E-001
Al  3.73093130E-001  6.24658223E-001  4.99890105E-001
Al  3.74991007E-001  5.01937588E-001  6.24801187E-001
Al  2.51798031E-001  6.25173353E-001  6.24879128E-001
Al  2.51956814E-001  5.00106227E-001  7.51262183E-001
Al  3.74851727E-001  6.24963894E-001  7.49990999E-001
Al  3.75675684E-001  4.98670811E-001  8.72748824E-001
Al  2.51045495E-001  6.22502751E-001  8.74653451E-001
Al  2.49566047E-001  7.49824654E-001  5.28744206E-004
Al  3.75018115E-001  8.74916745E-001  8.32028200E-005
Al  3.76924607E-001  7.47869843E-001  1.26352182E-001
Al  2.49950473E-001  8.74982868E-001  1.25009618E-001
Al  2.47657764E-001  7.47670046E-001  2.52468712E-001
Al  3.76045376E-001  8.74345237E-001  2.50122306E-001
Al  3.74991377E-001  7.49883509E-001  3.73038817E-001
Al  2.50267441E-001  8.74751142E-001  3.75232549E-001
Al  2.50036991E-001  7.47892111E-001  5.02413800E-001
Al  3.75126978E-001  8.75525638E-001  5.02398553E-001
Al  3.73511713E-001  7.50044947E-001  6.25158323E-001
Al  2.51038894E-001  8.75009674E-001  6.25008554E-001
Al  2.49981976E-001  7.49528090E-001  7.51125562E-001
Al  3.74681564E-001  8.75468279E-001  7.52193402E-001
Al  3.74887599E-001  7.49981004E-001  8.75663834E-001
Al  2.48787140E-001  8.75278634E-001  8.72546620E-001
Al  4.97550800E-001  -7.83525404E-005  2.24055752E-003
Al  6.24945532E-001  1.26449289E-001  -2.46911090E-003
Al  6.24295023E-001  3.57351370E-005  1.24965729E-001
Al  5.00286139E-001  1.25061083E-001  1.22503001E-001
Al  5.02495136E-001  1.93034936E-003  2.50761936E-001
Al  6.22711864E-001  1.26561125E-001  2.50447098E-001
Al  6.25077707E-001  2.09356736E-003  3.75456614E-001
Al  4.99004022E-001  1.26735220E-001  3.74942725E-001
Al  4.97953026E-001  1.37058985E-003  4.99874944E-001
Al  6.24981013E-001  1.24776346E-001  5.02488714E-001
Al  6.24911690E-001  1.84574872E-004  6.24991387E-001
Al  4.99754500E-001  1.26035110E-001  6.23098263E-001
Al  4.99432485E-001  -1.81332787E-005  7.47524967E-001
Al  6.25018200E-001  1.27498748E-001  7.50411373E-001
Al  6.24976355E-001  -1.47560065E-003  8.75197438E-001
Al  4.97528337E-001  1.25520714E-001  8.72543778E-001
Al  5.02312673E-001  2.49863542E-001  2.27692758E-003
Al  6.25653747E-001  3.75052943E-001  2.58526681E-005
Al  6.23422378E-001  2.51008488E-001  1.23039043E-001
Al  4.99552856E-001  3.75524960E-001  1.25271637E-001
Al  4.99770655E-001  2.51584819E-001  2.50020303E-001
Al  6.24552028E-001  3.75448463E-001  2.50243776E-001
Al  6.25750878E-001  2.50816680E-001  3.72883582E-001
Al  5.01278547E-001  3.74991290E-001  3.74202276E-001
Al  4.99828960E-001  2.47841450E-001  4.98046172E-001
Al  6.26990663E-001  3.73984984E-001  5.01739457E-001
Al  6.25024695E-001  2.47949728E-001  6.25025233E-001
Al  5.01282743E-001  3.72529099E-001  6.25486969E-001
Al  4.98623478E-001  2.50050439E-001  7.50018602E-001
Al  6.25595486E-001  3.74953961E-001  7.52384138E-001
Al  6.24991197E-001  2.50008963E-001  8.77235667E-001
Al  4.99814863E-001  3.73887405E-001  8.74934830E-001
Al  5.00428116E-001  5.00023802E-001  3.37616053E-004
Al  6.25020232E-001  6.24945667E-001  3.11456572E-004
Al  6.25018397E-001  4.97745496E-001  1.24980994E-001
Al  4.97736108E-001  6.24829595E-001  1.22595810E-001
Al  4.99057741E-001  5.00285387E-001  2.49990311E-001
Al  6.25048669E-001  6.26757938E-001  2.52498868E-001
Al  6.24354409E-001  4.99865961E-001  3.74891982E-001
Al  4.97793325E-001  6.25348888E-001  3.73542954E-001
Al  5.02235645E-001  4.99741448E-001  5.00047753E-001
Al  6.24610151E-001  6.24971734E-001  5.02220309E-001
Al  6.27335998E-001  5.00396699E-001  6.25029444E-001
Al  4.99982986E-001  6.25142361E-001  6.26213848E-001
Al  5.00080129E-001  4.99981582E-001  7.49767438E-001
Al  6.25018252E-001  6.24880035E-001  7.47724239E-001
Al  6.24991378E-001  4.99959344E-001  8.74991327E-001
Al  5.00165635E-001  6.24979460E-001  8.77499257E-001
Al  4.99917685E-001  7.49406000E-001  -1.97113165E-003
Al  6.24990989E-001  8.75127551E-001  -8.48099370E-005
Al  6.26671664E-001  7.49982022E-001  1.24945866E-001
Al  5.02470786E-001  8.75219681E-001  1.22507808E-001
Al  5.00065319E-001  7.48816189E-001  2.47721447E-001
Al  6.24958498E-001  8.75019813E-001  2.51811703E-001
Al  6.24113786E-001  7.50039539E-001  3.74781437E-001
Al  5.00748641E-001  8.73699191E-001  3.75008514E-001
Al  5.00043614E-001  7.49744269E-001  4.99853522E-001
Al  6.27260483E-001  8.77304423E-001  4.99034550E-001
Al  6.27377490E-001  7.49981668E-001  6.25080396E-001
Al  4.99958776E-001  8.75510206E-001  6.27201423E-001
Al  4.98446915E-001  7.48518625E-001  7.49867080E-001
Al  6.25198446E-001  8.76258193E-001  7.49981229E-001
Al  6.22503936E-001  7.51707694E-001  8.73354953E-001
Al  4.97540255E-001  8.73200346E-001  8.74991094E-001
Al  7.48559168E-001  9.48206937E-004  1.04492054E-003
Al  8.77173989E-001  1.24606030E-001  -1.86378110E-003
Al  8.75883445E-001  -5.36959089E-005  1.23400093E-001
Al  7.49954463E-001  1.23643501E-001  1.23125201E-001
Al  7.48051190E-001  9.28351623E-006  2.52060752E-001
Al  8.75306410E-001  1.26526368E-001  2.47660992E-001
Al  8.75646986E-001  -1.82313687E-005  3.75305842E-001
Al  7.52238020E-001  1.25181602E-001  3.75018323E-001
Al  7.51604252E-001  -9.11026162E-004  4.97931251E-001
Al  8.75018618E-001  1.22933527E-001  5.00052018E-001
Al  8.72500006E-001  -4.18182860E-004  6.25069601E-001
Al  7.50844762E-001  1.24320582E-001  6.26755647E-001
Al  7.50614471E-001  3.73266087E-004  7.48075599E-001
Al  8.73353076E-001  1.24618675E-001  7.49766262E-001
Al  8.73151067E-001  -3.25411191E-004  8.75228403E-001
Al  7.51486581E-001  1.24958651E-001  8.74935980E-001
Al  7.49834748E-001  2.49842690E-001  -4.39405962E-004
Al  8.73942172E-001  3.77074153E-001  -8.28174295E-004
Al  8.73670756E-001  2.47503499E-001  1.26131348E-001
Al  7.47896966E-001  3.75018179E-001  1.25941227E-001
Al  7.50008417E-001  2.48466580E-001  2.50137464E-001
Al  8.72799961E-001  3.75662700E-001  2.49662418E-001
Al  8.74991503E-001  2.50019430E-001  3.77298918E-001
Al  7.47709294E-001  3.73279446E-001  3.74822975E-001
Al  7.51314824E-001  2.50009784E-001  5.00184245E-001
Al  8.75069232E-001  3.75650440E-001  4.97849432E-001
Al  8.76608748E-001  2.47799793E-001  6.27392088E-001
Al  7.49564935E-001  3.75209297E-001  6.26809953E-001
Al  7.50059669E-001  2.50046119E-001  7.50418102E-001
Al  8.75609797E-001  3.72691625E-001  7.49933293E-001
Al  8.77069562E-001  2.50020221E-001  8.75008453E-001
Al  7.50009311E-001  3.72841120E-001  8.76278183E-001
Al  7.51479920E-001  5.00318663E-001  2.06307938E-005
Al  8.75931785E-001  6.22612169E-001  -1.47741663E-003
Al  8.77104969E-001  4.97953822E-001  1.27294390E-001
Al  7.49644694E-001  6.24334301E-001  1.25031064E-001
Al  7.51799419E-001  4.99472062E-001  2.49936665E-001
Al  8.75018337E-001  6.23655745E-001  2.49981291E-001
Al  8.72914955E-001  5.02153155E-001  3.77498479E-001
Al  7.50084705E-001  6.24762521E-001  3.74531977E-001
Al  7.49850877E-001  4.99922169E-001  5.00008582E-001
Al  8.74247720E-001  6.24165675E-001  5.00850766E-001
Al  8.74981770E-001  4.99795310E-001  6.26968425E-001
Al  7.49991244E-001  6.24981471E-001  6.25008425E-001
Al  7.52473655E-001  5.00018314E-001  7.49886560E-001
Al  8.74963796E-001  6.26206253E-001  7.48185524E-001
Al  8.73611750E-001  5.00053692E-001  8.74975752E-001
Al  7.50018702E-001  6.24386209E-001  8.72540237E-001
Al  7.50044709E-001  7.50085932E-001  1.94757197E-003
Al  8.77083111E-001  8.75116925E-001  -1.45814455E-003
Al  8.77369337E-001  7.50008788E-001  1.24115544E-001
Al  7.51621352E-001  8.74981285E-001  1.25142981E-001
Al  7.50035874E-001  7.48666130E-001  2.49706057E-001
Al  8.74964844E-001  8.77165870E-001  2.52499904E-001
Al  8.77495762E-001  7.49855960E-001  3.74886602E-001
Al  7.50343277E-001  8.75945156E-001  3.75018472E-001
Al  7.48469624E-001  7.47753814E-001  4.98164474E-001
Al  8.74144398E-001  8.74949461E-001  5.00819989E-001
Al  8.74974111E-001  7.49991290E-001  6.27436972E-001
Al  7.50078802E-001  8.75150224E-001  6.24990443E-001
Al  7.49134656E-001  7.49972691E-001  7.52181860E-001
Al  8.74297571E-001  8.75216019E-001  7.47632306E-001
Al  8.74085579E-001  7.50032554E-001  8.73938226E-001
Al  7.50091925E-001  8.75501912E-001  8.72537039E-001
K_POINTS automatic
2 2 2 1 1 1
