&CONTROL
restart_mode = 'from_scratch',
calculation = 'scf',
outdir = '/gpfs/bb/bxp912/scratch',
pseudo_dir = '/gpfs/bb/bxp912/pseudopotentials',
prefix = '2.48000000E-001',
etot_conv_thr = 1.00000000E-007,
forc_conv_thr = 1.00000000E-007,
nstep = 200,
tprnfor = .true.,
tstress = .true.,
disk_io = 'low',
/
&SYSTEM
ibrav = 14,
celldm(1) = 3.05001797E+001,
celldm(2) = 1.00000000E+000,
celldm(3) = 1.00000000E+000,
celldm(4) = 0.00000000E+000,
celldm(5) = 0.00000000E+000,
celldm(6) = 0.00000000E+000,
nat = 256,
ntyp = 1,
ecutwfc = 35,
ecutrho = 208,
occupations = 'smearing',
smearing = 'mv',
degauss = 5.00000007E-002,
/
&ELECTRONS
diagonalization = 'david',
mixing_mode = plain,
mixing_beta = 6.99999988E-001,
conv_thr = 1.00000000E-007,
/
&IONS
ion_dynamics = 'bfgs',
/
&CELL
cell_dynamics = 'bfgs',
press = 0.00000000E+000,
cell_factor = 2.00000000E+000,
/
ATOMIC_SPECIES
Al  2.69815390E+001  Al.pbe-n-kjpaw_psl.0.1.UPF
ATOMIC_POSITIONS crystal
Al  -3.58710593E-004  -4.30204262E-004  -2.46324314E-003
Al  1.23619637E-001  1.24805595E-001  -2.48716839E-003
Al  1.25082028E-001  -3.01140520E-004  1.25752161E-001
Al  1.76740388E-003  1.24786210E-001  1.24929516E-001
Al  1.85990618E-003  8.85174336E-004  2.51714755E-001
Al  1.25950438E-001  1.25744191E-001  2.49277383E-001
Al  1.24593703E-001  2.14992275E-003  3.74513439E-001
Al  -8.44689459E-006  1.24097556E-001  3.74932885E-001
Al  -1.28451040E-004  2.70496009E-005  4.99806034E-001
Al  1.25008519E-001  1.26639734E-001  4.98439834E-001
Al  1.23772790E-001  -2.40475726E-004  6.26659914E-001
Al  -1.73401298E-003  1.24387376E-001  6.25498405E-001
Al  1.04767663E-003  4.78587058E-004  7.51332839E-001
Al  1.27065367E-001  1.26316978E-001  7.47527727E-001
Al  1.24928721E-001  2.02691030E-005  8.73991506E-001
Al  -1.90616522E-003  1.24866237E-001  8.74935033E-001
Al  1.66195902E-004  2.49832549E-001  2.78545195E-005
Al  1.25604394E-001  3.74833686E-001  -1.80118747E-003
Al  1.23614027E-001  2.49980120E-001  1.26404761E-001
Al  -2.70403946E-004  3.76825122E-001  1.24991496E-001
Al  -1.81290329E-003  2.48714605E-001  2.50987218E-001
Al  1.25617072E-001  3.75122468E-001  2.49981880E-001
Al  1.27174461E-001  2.49981660E-001  3.76793359E-001
Al  -7.94345555E-005  3.75020186E-001  3.74936708E-001
Al  -3.45586364E-005  2.51041110E-001  5.00782190E-001
Al  1.24747163E-001  3.72650491E-001  5.02343368E-001
Al  1.23432750E-001  2.51267208E-001  6.25728990E-001
Al  -9.46746386E-004  3.75507706E-001  6.24981864E-001
Al  -2.11101236E-005  2.50042484E-001  7.47673930E-001
Al  1.23207941E-001  3.74857923E-001  7.52264567E-001
Al  1.24626657E-001  2.49563792E-001  8.75700553E-001
Al  -4.30395793E-004  3.76115530E-001  8.73516018E-001
Al  -4.31762185E-004  5.02440756E-001  -3.38413072E-004
Al  1.23639850E-001  6.25028910E-001  -6.52219171E-004
Al  1.25058445E-001  4.98116251E-001  1.23696769E-001
Al  2.76837863E-004  6.23471189E-001  1.22700763E-001
Al  -2.42873736E-004  5.02043355E-001  2.50065912E-001
Al  1.24974857E-001  6.22588796E-001  2.49877585E-001
Al  1.22823905E-001  5.00019170E-001  3.75731724E-001
Al  -2.16290262E-005  6.27228285E-001  3.74932390E-001
Al  2.10015501E-004  4.98688189E-001  5.01052900E-001
Al  1.23740983E-001  6.27282484E-001  5.00183740E-001
Al  1.26193716E-001  5.01285290E-001  6.24976481E-001
Al  -1.37254643E-003  6.24054071E-001  6.23569394E-001
Al  -1.97118966E-003  5.00036609E-001  7.51800990E-001
Al  1.25900672E-001  6.24635272E-001  7.52468384E-001
Al  1.24880713E-001  5.01422987E-001  8.74579873E-001
Al  2.30270499E-005  6.24786349E-001  8.72618674E-001
Al  -2.36185869E-003  7.50018528E-001  -1.90337405E-005
Al  1.26822440E-001  8.75741923E-001  1.89572188E-005
Al  1.25019869E-001  7.49907722E-001  1.24968601E-001
Al  -2.41199658E-003  8.76716376E-001  1.25097167E-001
Al  1.76909435E-003  7.49267745E-001  2.50059905E-001
Al  1.26469334E-001  8.75008890E-001  2.47589748E-001
Al  1.22521992E-001  7.50383662E-001  3.74374335E-001
Al  2.31861194E-003  8.75022453E-001  3.75151204E-001
Al  8.37170404E-006  7.51092346E-001  4.99132060E-001
Al  1.27292460E-001  8.77444799E-001  4.98896163E-001
Al  1.23718405E-001  7.49838135E-001  6.24356472E-001
Al  -2.18831821E-003  8.75008388E-001  6.26936789E-001
Al  -8.99675748E-006  7.50105119E-001  7.51102976E-001
Al  1.26242501E-001  8.74517202E-001  7.49991043E-001
Al  1.25256055E-001  7.47910029E-001  8.74782615E-001
Al  2.32300161E-005  8.74644842E-001  8.72504062E-001
Al  2.49918367E-001  -9.51879172E-004  -7.67367853E-004
Al  3.74991025E-001  1.27449532E-001  9.59582151E-006
Al  3.77266361E-001  2.35103321E-003  1.27433934E-001
Al  2.52047704E-001  1.26205904E-001  1.23581803E-001
Al  2.50171444E-001  -9.08032357E-006  2.52034232E-001
Al  3.77449067E-001  1.27499979E-001  2.51501848E-001
Al  3.74393434E-001  -1.29890409E-003  3.74981725E-001
Al  2.50018217E-001  1.22677900E-001  3.75287758E-001
Al  2.50038695E-001  1.85788852E-003  4.99956320E-001
Al  3.73469786E-001  1.26391562E-001  4.99917602E-001
Al  3.77498202E-001  -2.08536440E-004  6.25670048E-001
Al  2.50189956E-001  1.24953963E-001  6.24775388E-001
Al  2.50023569E-001  2.29403981E-004  7.50074216E-001
Al  3.75037956E-001  1.25018158E-001  7.49848133E-001
Al  3.75028261E-001  3.90625457E-004  8.75633343E-001
Al  2.50624958E-001  1.24516160E-001  8.74380556E-001
Al  2.49981581E-001  2.48641517E-001  2.05769193E-003
Al  3.76993153E-001  3.75079466E-001  1.37500883E-003
Al  3.73733482E-001  2.49814872E-001  1.24722546E-001
Al  2.52499499E-001  3.73523548E-001  1.25231134E-001
Al  2.48672731E-001  2.50699506E-001  2.49898578E-001
Al  3.73148863E-001  3.73231728E-001  2.50109052E-001
Al  3.75017453E-001  2.50008548E-001  3.74832308E-001
Al  2.50729011E-001  3.74853692E-001  3.74057820E-001
Al  2.50036590E-001  2.51670409E-001  4.99438604E-001
Al  3.74597217E-001  3.73762995E-001  4.98010907E-001
Al  3.74797289E-001  2.50095962E-001  6.22510235E-001
Al  2.51029693E-001  3.74980518E-001  6.24779808E-001
Al  2.49844175E-001  2.50008371E-001  7.51638717E-001
Al  3.74931577E-001  3.77493806E-001  7.47531828E-001
Al  3.77007842E-001  2.49372529E-001  8.74716299E-001
Al  2.49991619E-001  3.75136273E-001  8.74521706E-001
Al  2.52494187E-001  5.00114882E-001  -3.97098372E-005
Al  3.72752237E-001  6.25027882E-001  1.81855102E-005
Al  3.74224157E-001  5.00018112E-001  1.27162660E-001
Al  2.50223830E-001  6.24547051E-001  1.25009248E-001
Al  2.47901130E-001  4.99991461E-001  2.50019425E-001
Al  3.75916107E-001  6.24880269E-001  2.49752291E-001
Al  3.75176962E-001  5.00730693E-001  3.74323769E-001
Al  2.48559297E-001  6.23815449E-001  3.74801459E-001
Al  2.49218231E-001  5.02241225E-001  5.01593408E-001
Al  3.73961571E-001  6.24938551E-001  4.99935200E-001
Al  3.74991104E-001  5.00018110E-001  6.24426534E-001
Al  2.51124579E-001  6.24981279E-001  6.22525455E-001
Al  2.49776056E-001  5.00161458E-001  7.47805120E-001
Al  3.74851085E-001  6.24852420E-001  7.50170938E-001
Al  3.75024602E-001  5.00028186E-001  8.73516723E-001
Al  2.48518280E-001  6.25090922E-001  8.72551679E-001
Al  2.47906293E-001  7.50217023E-001  7.62285752E-004
Al  3.74901150E-001  8.74463646E-001  1.68956512E-003
Al  3.75932939E-001  7.52464535E-001  1.22682710E-001
Al  2.49714524E-001  8.73155285E-001  1.25071734E-001
Al  2.50018323E-001  7.48846974E-001  2.52494357E-001
Al  3.73374666E-001  8.74840509E-001  2.48060757E-001
Al  3.75354740E-001  7.50093884E-001  3.76184509E-001
Al  2.50191091E-001  8.77499877E-001  3.75034405E-001
Al  2.50135566E-001  7.48315729E-001  5.02483162E-001
Al  3.74950537E-001  8.74716073E-001  4.98626325E-001
Al  3.75036911E-001  7.49731273E-001  6.24990932E-001
Al  2.52106291E-001  8.75241192E-001  6.23248716E-001
Al  2.47658554E-001  7.50376773E-001  7.49449483E-001
Al  3.75021657E-001  8.72503792E-001  7.52482492E-001
Al  3.73124708E-001  7.49899598E-001  8.72515458E-001
Al  2.49474692E-001  8.72534342E-001  8.74991582E-001
Al  5.01735752E-001  -2.12060817E-003  1.12283867E-003
Al  6.22843153E-001  1.24965621E-001  2.39906539E-003
Al  6.24829293E-001  -4.16482871E-005  1.24991483E-001
Al  5.00449825E-001  1.25146694E-001  1.22520762E-001
Al  4.98883911E-001  -4.03391292E-004  2.50092290E-001
Al  6.23670144E-001  1.27374687E-001  2.50008639E-001
Al  6.27495988E-001  2.95111555E-004  3.75815241E-001
Al  4.99915993E-001  1.22953625E-001  3.75104315E-001
Al  5.01443011E-001  -2.47764643E-003  5.00165691E-001
Al  6.24628040E-001  1.25090406E-001  5.00582918E-001
Al  6.24973703E-001  -9.43341335E-004  6.27018278E-001
Al  5.01935272E-001  1.27485284E-001  6.24624354E-001
Al  5.00809078E-001  -2.08620700E-003  7.49542130E-001
Al  6.24593312E-001  1.26411879E-001  7.48655988E-001
Al  6.25205583E-001  2.00645408E-004  8.74266508E-001
Al  5.01703014E-001  1.25008544E-001  8.73665253E-001
Al  5.01977322E-001  2.49948309E-001  -2.56322396E-005
Al  6.24638067E-001  3.77457826E-001  -3.30022733E-005
Al  6.24981070E-001  2.48488282E-001  1.27149035E-001
Al  4.97871278E-001  3.74991600E-001  1.25038238E-001
Al  4.98175095E-001  2.50844383E-001  2.49614209E-001
Al  6.24831327E-001  3.74915637E-001  2.51711954E-001
Al  6.27443724E-001  2.49852750E-001  3.72633031E-001
Al  5.01302916E-001  3.73756414E-001  3.77380223E-001
Al  4.98112107E-001  2.51328130E-001  5.01329524E-001
Al  6.23297330E-001  3.75669769E-001  5.01437555E-001
Al  6.23865302E-001  2.52249892E-001  6.24595906E-001
Al  5.00450441E-001  3.77385983E-001  6.24439867E-001
Al  5.00818047E-001  2.50150280E-001  7.49991630E-001
Al  6.25018321E-001  3.74630759E-001  7.49865872E-001
Al  6.26505331E-001  2.49686747E-001  8.77103251E-001
Al  4.99906472E-001  3.75067168E-001  8.74978639E-001
Al  4.99822241E-001  5.00060681E-001  1.42577703E-003
Al  6.24991207E-001  6.23736964E-001  1.05822351E-004
Al  6.22507430E-001  4.97710897E-001  1.26956468E-001
Al  4.98756517E-001  6.23884317E-001  1.25675854E-001
Al  5.00008396E-001  4.99439251E-001  2.50444881E-001
Al  6.25021726E-001  6.26677932E-001  2.49340245E-001
Al  6.25018193E-001  4.99990945E-001  3.74991597E-001
Al  4.98504632E-001  6.26423479E-001  3.76773339E-001
Al  5.01824819E-001  4.99609531E-001  5.00039922E-001
Al  6.23312762E-001  6.23610183E-001  4.97606639E-001
Al  6.24855443E-001  5.00499003E-001  6.24871377E-001
Al  5.01603828E-001  6.26636765E-001  6.25946363E-001
Al  4.98806109E-001  5.00801180E-001  7.47822616E-001
Al  6.24651065E-001  6.22526384E-001  7.49981192E-001
Al  6.24887946E-001  5.00620589E-001  8.75657001E-001
Al  5.02306621E-001  6.27336416E-001  8.72586089E-001
Al  4.98129207E-001  7.50019457E-001  2.23470359E-004
Al  6.24981589E-001  8.73560400E-001  -5.43263651E-004
Al  6.25944218E-001  7.49962560E-001  1.23864713E-001
Al  4.99840904E-001  8.73099687E-001  1.25034528E-001
Al  5.02305500E-001  7.47751191E-001  2.49991464E-001
Al  6.25141135E-001  8.75868145E-001  2.47695847E-001
Al  6.25664099E-001  7.49707550E-001  3.75018227E-001
Al  5.00018759E-001  8.75514164E-001  3.75008411E-001
Al  5.02440194E-001  7.49531877E-001  5.00151207E-001
Al  6.25207636E-001  8.75502061E-001  5.00020935E-001
Al  6.23113295E-001  7.47524101E-001  6.23466187E-001
Al  5.00805382E-001  8.72607302E-001  6.24849941E-001
Al  4.99977224E-001  7.47504460E-001  7.49510573E-001
Al  6.24969473E-001  8.74976150E-001  7.50019684E-001
Al  6.22740065E-001  7.52383562E-001  8.75043448E-001
Al  5.00351292E-001  8.74689697E-001  8.74982116E-001
Al  7.50137991E-001  1.72937064E-003  2.40822772E-003
Al  8.72534032E-001  1.25529428E-001  7.81937946E-004
Al  8.77427015E-001  1.86766083E-005  1.26862969E-001
Al  7.51467730E-001  1.25009250E-001  1.25133971E-001
Al  7.50931505E-001  -2.23681427E-003  2.50260315E-001
Al  8.77497406E-001  1.23112278E-001  2.50291416E-001
Al  8.76411042E-001  6.06425678E-005  3.75037419E-001
Al  7.50204027E-001  1.25019128E-001  3.74411051E-001
Al  7.49991630E-001  8.48043020E-004  5.01543387E-001
Al  8.73758209E-001  1.24425196E-001  4.98456309E-001
Al  8.74811256E-001  2.15955462E-003  6.25331744E-001
Al  7.48032739E-001  1.24949893E-001  6.24957773E-001
Al  7.49970800E-001  4.70670021E-005  7.50018908E-001
Al  8.74806240E-001  1.27369127E-001  7.49980556E-001
Al  8.76659777E-001  1.48086486E-004  8.75372223E-001
Al  7.47507647E-001  1.23377412E-001  8.75190685E-001
Al  7.50997655E-001  2.49859669E-001  -1.25173016E-003
Al  8.75823715E-001  3.75663291E-001  -1.19404444E-003
Al  8.77434774E-001  2.47739636E-001  1.25559441E-001
Al  7.50645860E-001  3.73309365E-001  1.25882585E-001
Al  7.47533645E-001  2.47938715E-001  2.49865936E-001
Al  8.75121186E-001  3.72949933E-001  2.49886005E-001
Al  8.77456586E-001  2.50090014E-001  3.77374689E-001
Al  7.47502785E-001  3.75064224E-001  3.74447223E-001
Al  7.51219416E-001  2.49119497E-001  4.99912691E-001
Al  8.76473819E-001  3.77463740E-001  4.99058240E-001
Al  8.75995128E-001  2.48765020E-001  6.25018134E-001
Al  7.51855171E-001  3.75687315E-001  6.27096253E-001
Al  7.50635650E-001  2.51737670E-001  7.47610079E-001
Al  8.73915694E-001  3.76692414E-001  7.50360243E-001
Al  8.75018142E-001  2.50120536E-001  8.77069577E-001
Al  7.49982702E-001  3.75008400E-001  8.77499771E-001
Al  7.49991036E-001  5.02486280E-001  2.19541573E-003
Al  8.76100580E-001  6.26251973E-001  4.42885627E-005
Al  8.75235007E-001  5.00023494E-001  1.25018108E-001
Al  7.50087074E-001  6.22519877E-001  1.24750354E-001
Al  7.49811145E-001  5.00608093E-001  2.49585590E-001
Al  8.75080105E-001  6.25304030E-001  2.52031006E-001
Al  8.74907821E-001  4.99981032E-001  3.74954310E-001
Al  7.50018527E-001  6.24218311E-001  3.76853159E-001
Al  7.50035237E-001  4.98890005E-001  5.02364218E-001
Al  8.76620110E-001  6.26837883E-001  5.00018194E-001
Al  8.75477678E-001  4.99892120E-001  6.27493900E-001
Al  7.49341130E-001  6.23606504E-001  6.24991547E-001
Al  7.50548642E-001  4.97526423E-001  7.48588902E-001
Al  8.75611782E-001  6.27464697E-001  7.52499936E-001
Al  8.75009165E-001  5.02170095E-001  8.76632713E-001
Al  7.48343312E-001  6.26705664E-001  8.74991585E-001
Al  7.50190791E-001  7.50019689E-001  2.48501274E-003
Al  8.72617060E-001  8.77481677E-001  -1.84706006E-005
Al  8.74712418E-001  7.50056875E-001  1.24472488E-001
Al  7.50120557E-001  8.75839967E-001  1.24131798E-001
Al  7.50038133E-001  7.50034399E-001  2.49353528E-001
Al  8.74842473E-001  8.76999316E-001  2.49712808E-001
Al  8.73044276E-001  7.50018156E-001  3.75456972E-001
Al  7.50057422E-001  8.74806771E-001  3.75019377E-001
Al  7.49921958E-001  7.49547076E-001  5.01584187E-001
Al  8.74066920E-001  8.76125014E-001  5.02335965E-001
Al  8.77468076E-001  7.50315542E-001  6.24102589E-001
Al  7.52478313E-001  8.77271596E-001  6.24928514E-001
Al  7.51111497E-001  7.50051454E-001  7.49816697E-001
Al  8.75090357E-001  8.74960140E-001  7.49791164E-001
Al  8.72738648E-001  7.48568959E-001  8.74881699E-001
Al  7.49185527E-001  8.75008576E-001  8.74684104E-001
K_POINTS automatic
2 2 2 1 1 1
