&CONTROL
restart_mode = 'from_scratch',
calculation = 'scf',
outdir = '/gpfs/bb/bxp912/scratch',
pseudo_dir = '/gpfs/bb/bxp912/pseudopotentials',
prefix = '2.48000000E-001',
etot_conv_thr = 1.00000000E-007,
forc_conv_thr = 1.00000000E-007,
nstep = 200,
tprnfor = .true.,
tstress = .true.,
disk_io = 'low',
/
&SYSTEM
ibrav = 14,
celldm(1) = 3.05001797E+001,
celldm(2) = 1.00000000E+000,
celldm(3) = 1.00000000E+000,
celldm(4) = 0.00000000E+000,
celldm(5) = 0.00000000E+000,
celldm(6) = 0.00000000E+000,
nat = 256,
ntyp = 1,
ecutwfc = 35,
ecutrho = 208,
occupations = 'smearing',
smearing = 'mv',
degauss = 5.00000007E-002,
/
&ELECTRONS
diagonalization = 'david',
mixing_mode = plain,
mixing_beta = 6.99999988E-001,
conv_thr = 1.00000000E-007,
/
&IONS
ion_dynamics = 'bfgs',
/
&CELL
cell_dynamics = 'bfgs',
press = 0.00000000E+000,
cell_factor = 2.00000000E+000,
/
ATOMIC_SPECIES
Al  2.69815390E+001  Al.pbe-n-kjpaw_psl.0.1.UPF
ATOMIC_POSITIONS crystal
Al  -5.90786308E-004  -8.33557148E-004  2.30511568E-003
Al  1.22856300E-001  1.24857006E-001  9.49187946E-005
Al  1.22662025E-001  1.72390081E-003  1.25089851E-001
Al  2.49621707E-003  1.25040924E-001  1.22588189E-001
Al  -2.97376504E-004  1.93043381E-003  2.50653563E-001
Al  1.26936758E-001  1.25020047E-001  2.51470776E-001
Al  1.24960052E-001  2.12209000E-003  3.76372594E-001
Al  -8.41154254E-006  1.25958673E-001  3.75997984E-001
Al  8.14390885E-004  -4.04859121E-005  5.00338921E-001
Al  1.25125865E-001  1.26944407E-001  5.00194319E-001
Al  1.24101537E-001  9.15487528E-006  6.22741531E-001
Al  1.83252481E-004  1.24948145E-001  6.24965162E-001
Al  3.49766358E-005  1.24056318E-003  7.48291260E-001
Al  1.27495503E-001  1.27363023E-001  7.47974778E-001
Al  1.24285771E-001  -1.65332150E-004  8.72681553E-001
Al  1.56451543E-003  1.25008742E-001  8.75019097E-001
Al  -9.60711750E-005  2.52118913E-001  2.19815253E-003
Al  1.25258761E-001  3.73793205E-001  -2.45316672E-003
Al  1.24981451E-001  2.49925214E-001  1.24551465E-001
Al  -8.79451026E-005  3.74713728E-001  1.24941762E-001
Al  2.47409630E-003  2.50924719E-001  2.50356568E-001
Al  1.22580535E-001  3.75700211E-001  2.47545822E-001
Al  1.24981733E-001  2.50307243E-001  3.72784294E-001
Al  2.43030605E-003  3.72922512E-001  3.77397205E-001
Al  -3.05850354E-004  2.50631610E-001  5.02325202E-001
Al  1.23323601E-001  3.75060007E-001  4.99925533E-001
Al  1.24911889E-001  2.49857505E-001  6.25008772E-001
Al  1.66545349E-003  3.77424837E-001  6.25196077E-001
Al  8.81050436E-005  2.47508963E-001  7.52315999E-001
Al  1.25008861E-001  3.75224060E-001  7.50348252E-001
Al  1.24972329E-001  2.50060820E-001  8.75267914E-001
Al  -2.04448268E-005  3.75019091E-001  8.74865765E-001
Al  -1.56865697E-004  5.00708556E-001  3.85582667E-005
Al  1.24922776E-001  6.23106556E-001  -3.43013026E-004
Al  1.23295672E-001  5.00009008E-001  1.25020253E-001
Al  -6.20405580E-005  6.23817888E-001  1.27479965E-001
Al  -1.28621796E-003  5.02421580E-001  2.49277888E-001
Al  1.24075173E-001  6.22500787E-001  2.47558447E-001
Al  1.24839163E-001  4.97930020E-001  3.73004211E-001
Al  -1.18687745E-003  6.22646708E-001  3.77380769E-001
Al  -2.46487276E-003  4.99862341E-001  5.00018134E-001
Al  1.22560677E-001  6.24764216E-001  4.99981449E-001
Al  1.25288447E-001  4.99976193E-001  6.26487437E-001
Al  2.39077532E-003  6.24934132E-001  6.25028485E-001
Al  -9.17243375E-004  5.00117362E-001  7.49780522E-001
Al  1.27488025E-001  6.26737635E-001  7.50617120E-001
Al  1.24990368E-001  5.00101368E-001  8.75067513E-001
Al  7.78667838E-005  6.24981312E-001  8.74109064E-001
Al  1.27264621E-003  7.49766732E-001  -2.43295934E-003
Al  1.26522800E-001  8.75264162E-001  -1.63429182E-003
Al  1.25064169E-001  7.50504765E-001  1.23534258E-001
Al  -2.49490210E-003  8.75018151E-001  1.23240934E-001
Al  1.24680754E-003  7.50395066E-001  2.50008443E-001
Al  1.23258999E-001  8.73670360E-001  2.50066448E-001
Al  1.25018816E-001  7.50425965E-001  3.74587985E-001
Al  8.56552854E-006  8.76572206E-001  3.76848278E-001
Al  1.10028671E-003  7.50205770E-001  5.00527736E-001
Al  1.24947088E-001  8.73848071E-001  5.00008396E-001
Al  1.27167861E-001  7.49812362E-001  6.24363550E-001
Al  1.04881568E-003  8.73997274E-001  6.26590009E-001
Al  2.61104479E-004  7.48151644E-001  7.51709474E-001
Al  1.26700098E-001  8.75163948E-001  7.52205896E-001
Al  1.26200246E-001  7.49245462E-001  8.77463426E-001
Al  -9.90836641E-004  8.77435314E-001  8.74782642E-001
Al  2.49464519E-001  -1.88688297E-005  2.33790768E-003
Al  3.77122516E-001  1.25027406E-001  -1.93369502E-004
Al  3.74956402E-001  1.81073774E-005  1.26693552E-001
Al  2.50929843E-001  1.24631207E-001  1.24973530E-001
Al  2.47668163E-001  -2.30947167E-005  2.49617545E-001
Al  3.77494398E-001  1.22586239E-001  2.50080441E-001
Al  3.75008406E-001  -8.08320046E-004  3.74981162E-001
Al  2.51421347E-001  1.22631775E-001  3.74991629E-001
Al  2.49591669E-001  -1.55816353E-003  4.99980990E-001
Al  3.73626062E-001  1.25258123E-001  4.99049471E-001
Al  3.74305230E-001  1.19435235E-003  6.25017792E-001
Al  2.47679443E-001  1.25789527E-001  6.24927919E-001
Al  2.50050245E-001  2.30074729E-003  7.49723768E-001
Al  3.76274919E-001  1.25061287E-001  7.49948147E-001
Al  3.75402433E-001  2.29552369E-004  8.75455669E-001
Al  2.50018382E-001  1.23410778E-001  8.75023840E-001
Al  2.48983682E-001  2.51043220E-001  -1.83443129E-003
Al  3.75323841E-001  3.75402067E-001  -9.66639764E-004
Al  3.76127261E-001  2.47581034E-001  1.24981369E-001
Al  2.50190005E-001  3.76456278E-001  1.24916170E-001
Al  2.50138073E-001  2.47968642E-001  2.52494926E-001
Al  3.75115443E-001  3.75709197E-001  2.49385162E-001
Al  3.74884645E-001  2.49975636E-001  3.74687433E-001
Al  2.50034823E-001  3.75008409E-001  3.76153975E-001
Al  2.52219125E-001  2.47934343E-001  5.00009147E-001
Al  3.74952137E-001  3.74067119E-001  5.00275778E-001
Al  3.75078555E-001  2.50401709E-001  6.24976405E-001
Al  2.52449782E-001  3.76880840E-001  6.25892746E-001
Al  2.49991385E-001  2.49981709E-001  7.48926245E-001
Al  3.77472167E-001  3.75711352E-001  7.47553754E-001
Al  3.77446369E-001  2.49981835E-001  8.75907888E-001
Al  2.48220230E-001  3.75049981E-001  8.74973887E-001
Al  2.48149487E-001  5.00707425E-001  2.33816724E-003
Al  3.74679332E-001  6.24559549E-001  4.78820668E-005
Al  3.75617012E-001  4.99903355E-001  1.26946549E-001
Al  2.49878767E-001  6.22507853E-001  1.24245778E-001
Al  2.47508625E-001  5.00008379E-001  2.50524592E-001
Al  3.74646565E-001  6.27211272E-001  2.49982613E-001
Al  3.75057840E-001  5.00250507E-001  3.75051806E-001
Al  2.49050278E-001  6.22648612E-001  3.75177767E-001
Al  2.50769328E-001  5.00523473E-001  5.01376185E-001
Al  3.75467761E-001  6.23691566E-001  4.98662095E-001
Al  3.73961717E-001  5.00018469E-001  6.23244093E-001
Al  2.49981619E-001  6.25181679E-001  6.24843224E-001
Al  2.50657051E-001  5.02486509E-001  7.47651707E-001
Al  3.74672050E-001  6.23749529E-001  7.51053435E-001
Al  3.76773082E-001  4.98283880E-001  8.75018280E-001
Al  2.51663782E-001  6.24037071E-001  8.75058501E-001
Al  2.48872200E-001  7.49991553E-001  8.39695138E-006
Al  3.75034978E-001  8.74969837E-001  -2.02011362E-003
Al  3.72501117E-001  7.50017939E-001  1.26372899E-001
Al  2.48472115E-001  8.75008521E-001  1.24573080E-001
Al  2.52064071E-001  7.49399423E-001  2.50507078E-001
Al  3.73994705E-001  8.74897832E-001  2.48468703E-001
Al  3.76969552E-001  7.52179243E-001  3.73301608E-001
Al  2.50325204E-001  8.74611618E-001  3.75551534E-001
Al  2.49611660E-001  7.50051600E-001  4.99981012E-001
Al  3.76085286E-001  8.74887161E-001  4.97607647E-001
Al  3.76960785E-001  7.52253210E-001  6.27476850E-001
Al  2.52357080E-001  8.75111442E-001  6.25159013E-001
Al  2.50036543E-001  7.49942738E-001  7.49968675E-001
Al  3.74563182E-001  8.72620022E-001  7.47949128E-001
Al  3.74623859E-001  7.50817826E-001  8.75114422E-001
Al  2.51298236E-001  8.76189003E-001  8.77229509E-001
Al  4.97516919E-001  -1.15927055E-003  -1.11551465E-003
Al  6.24969460E-001  1.25037135E-001  -7.83243963E-005
Al  6.25947372E-001  1.89058001E-003  1.24766319E-001
Al  5.02494202E-001  1.25149341E-001  1.22831664E-001
Al  4.99941602E-001  -1.98618644E-003  2.49900950E-001
Al  6.25309334E-001  1.23093489E-001  2.49969943E-001
Al  6.27485628E-001  -2.01750856E-005  3.74978840E-001
Al  5.02374553E-001  1.24399748E-001  3.76558634E-001
Al  5.01794812E-001  1.26833409E-003  5.01005308E-001
Al  6.27483575E-001  1.24876668E-001  5.00123922E-001
Al  6.22846873E-001  3.80956753E-004  6.22853185E-001
Al  5.00049573E-001  1.25172443E-001  6.26231260E-001
Al  4.98259084E-001  8.36666314E-004  7.50633343E-001
Al  6.25174880E-001  1.24533623E-001  7.49111524E-001
Al  6.24029638E-001  -1.70312084E-005  8.73129426E-001
Al  4.99947138E-001  1.24209590E-001  8.77420359E-001
Al  4.99980326E-001  2.49991615E-001  -9.15124818E-005
Al  6.26628571E-001  3.75019932E-001  -1.58414276E-003
Al  6.25223380E-001  2.51133318E-001  1.22508383E-001
Al  4.97896801E-001  3.73036831E-001  1.24942545E-001
Al  4.99833114E-001  2.49864592E-001  2.48773089E-001
Al  6.23038206E-001  3.75131062E-001  2.51240151E-001
Al  6.27408400E-001  2.50106738E-001  3.74926067E-001
Al  5.00659180E-001  3.77255196E-001  3.77411351E-001
Al  4.99980940E-001  2.50040229E-001  5.00398329E-001
Al  6.24300723E-001  3.74487419E-001  4.99489825E-001
Al  6.25215208E-001  2.50921934E-001  6.24977185E-001
Al  5.02224887E-001  3.76827613E-001  6.25162128E-001
Al  5.00119750E-001  2.49832634E-001  7.47916721E-001
Al  6.25035968E-001  3.74152238E-001  7.51392378E-001
Al  6.24655419E-001  2.49979701E-001  8.73109800E-001
Al  4.98769783E-001  3.75008525E-001  8.72508346E-001
Al  4.97990520E-001  5.00617732E-001  -6.04737030E-004
Al  6.24532175E-001  6.24991521E-001  -4.68678741E-004
Al  6.26810825E-001  5.00228271E-001  1.25018203E-001
Al  5.00269845E-001  6.27396119E-001  1.24748199E-001
Al  5.00062167E-001  5.00123759E-001  2.50124681E-001
Al  6.25665409E-001  6.25063749E-001  2.50009361E-001
Al  6.25345972E-001  5.00740256E-001  3.76242596E-001
Al  5.00062172E-001  6.24981220E-001  3.74933850E-001
Al  5.00721357E-001  4.97526496E-001  4.99363166E-001
Al  6.22813145E-001  6.25203732E-001  4.97561569E-001
Al  6.26128235E-001  4.97543210E-001  6.26857550E-001
Al  5.00125600E-001  6.22503205E-001  6.24682236E-001
Al  5.02499697E-001  5.02304854E-001  7.48175234E-001
Al  6.23025849E-001  6.23880569E-001  7.50715032E-001
Al  6.22545696E-001  4.99778914E-001  8.75837714E-001
Al  5.00032123E-001  6.24061222E-001  8.75018043E-001
Al  4.98364864E-001  7.47588710E-001  1.38680226E-003
Al  6.24911881E-001  8.77389878E-001  1.71874803E-004
Al  6.26910335E-001  7.50024237E-001  1.22524980E-001
Al  4.99958039E-001  8.74494059E-001  1.25061950E-001
Al  4.97509994E-001  7.48077488E-001  2.50031850E-001
Al  6.25080429E-001  8.74568026E-001  2.49309540E-001
Al  6.24525062E-001  7.50008460E-001  3.75492091E-001
Al  4.99941768E-001  8.75700815E-001  3.75152782E-001
Al  5.02486080E-001  7.50181491E-001  4.97579214E-001
Al  6.25265907E-001  8.75755110E-001  5.00057068E-001
Al  6.25028360E-001  7.51489268E-001  6.24728059E-001
Al  4.99825047E-001  8.77383067E-001  6.24863039E-001
Al  4.97514946E-001  7.47827078E-001  7.49490973E-001
Al  6.24076994E-001  8.74559704E-001  7.50626129E-001
Al  6.24906559E-001  7.48562993E-001  8.75327091E-001
Al  4.99981782E-001  8.75019470E-001  8.75286435E-001
Al  7.50044477E-001  -4.45748620E-004  -2.26265179E-004
Al  8.75846664E-001  1.22652909E-001  1.75288741E-003
Al  8.74900893E-001  -9.65057363E-005  1.23774650E-001
Al  7.50775398E-001  1.25422128E-001  1.25491754E-001
Al  7.52428934E-001  2.29262799E-003  2.51547827E-001
Al  8.73431323E-001  1.24934837E-001  2.50085286E-001
Al  8.76606680E-001  -4.34089423E-005  3.72900790E-001
Al  7.49091856E-001  1.25008391E-001  3.75019374E-001
Al  7.50018130E-001  1.91507830E-005  5.00070792E-001
Al  8.74971318E-001  1.22880194E-001  5.01647313E-001
Al  8.73132430E-001  1.47519773E-003  6.23572470E-001
Al  7.49416611E-001  1.23909213E-001  6.25126619E-001
Al  7.49405656E-001  5.04806332E-004  7.47755853E-001
Al  8.74980484E-001  1.23733607E-001  7.49129833E-001
Al  8.77497431E-001  -2.18972238E-003  8.75018296E-001
Al  7.51564461E-001  1.22689665E-001  8.74080344E-001
Al  7.52490002E-001  2.49981787E-001  -1.79893838E-005
Al  8.74991301E-001  3.75098127E-001  8.37953736E-006
Al  8.75055813E-001  2.49681307E-001  1.24991471E-001
Al  7.52489638E-001  3.75244708E-001  1.22501063E-001
Al  7.49954987E-001  2.50052025E-001  2.49906089E-001
Al  8.76699891E-001  3.75008664E-001  2.47849396E-001
Al  8.74962017E-001  2.52343415E-001  3.75018911E-001
Al  7.50039729E-001  3.74981790E-001  3.76925114E-001
Al  7.49523594E-001  2.49979222E-001  5.00533276E-001
Al  8.75833442E-001  3.76282443E-001  4.98703868E-001
Al  8.72500314E-001  2.50018109E-001  6.25124042E-001
Al  7.51228019E-001  3.76897706E-001  6.23202398E-001
Al  7.49784009E-001  2.52499954E-001  7.49927073E-001
Al  8.75366543E-001  3.75206762E-001  7.51842799E-001
Al  8.73421768E-001  2.49944479E-001  8.75740190E-001
Al  7.50688947E-001  3.75472527E-001  8.75488451E-001
Al  7.51253518E-001  4.99088393E-001  6.08163747E-005
Al  8.73704443E-001  6.25059612E-001  2.00547421E-005
Al  8.73133166E-001  5.00288974E-001  1.24894237E-001
Al  7.50150054E-001  6.25116212E-001  1.25264454E-001
Al  7.52269377E-001  4.99860376E-001  2.50630657E-001
Al  8.75140600E-001  6.26341659E-001  2.52316072E-001
Al  8.75230840E-001  4.99938766E-001  3.74968530E-001
Al  7.48919565E-001  6.24904042E-001  3.72783893E-001
Al  7.51922487E-001  4.98905774E-001  5.02231313E-001
Al  8.74885106E-001  6.24915184E-001  5.01921940E-001
Al  8.74425962E-001  4.97655438E-001  6.26585450E-001
Al  7.51922439E-001  6.23067800E-001  6.25191123E-001
Al  7.50347600E-001  5.01175989E-001  7.50018111E-001
Al  8.75048617E-001  6.22518481E-001  7.47654441E-001
Al  8.75110213E-001  4.99494556E-001  8.77458813E-001
Al  7.52411803E-001  6.24789837E-001  8.76170257E-001
Al  7.47884640E-001  7.48130871E-001  -2.93154886E-005
Al  8.74678383E-001  8.76403130E-001  1.35943760E-003
Al  8.74981174E-001  7.52352571E-001  1.27499866E-001
Al  7.52473046E-001  8.75018189E-001  1.24991265E-001
Al  7.50373922E-001  7.48512722E-001  2.50726218E-001
Al  8.77286787E-001  8.75018465E-001  2.49964347E-001
Al  8.76196295E-001  7.50061700E-001  3.76697056E-001
Al  7.50151675E-001  8.75190698E-001  3.72500525E-001
Al  7.47739682E-001  7.51811239E-001  5.02495562E-001
Al  8.74925871E-001  8.75044581E-001  5.01093666E-001
Al  8.75055686E-001  7.50047563E-001  6.22500980E-001
Al  7.52461903E-001  8.75253931E-001  6.26004851E-001
Al  7.51898847E-001  7.47893432E-001  7.49598158E-001
Al  8.74510534E-001  8.75027971E-001  7.48126958E-001
Al  8.73095218E-001  7.49976362E-001  8.74576863E-001
Al  7.50054552E-001  8.74922052E-001  8.73320744E-001
K_POINTS automatic
2 2 2 1 1 1
