&CONTROL
restart_mode = 'from_scratch',
calculation = 'scf',
outdir = '/gpfs/bb/bxp912/scratch',
pseudo_dir = '/gpfs/bb/bxp912/pseudopotentials',
prefix = '2.48000000E-001',
etot_conv_thr = 1.00000000E-007,
forc_conv_thr = 1.00000000E-007,
nstep = 200,
tprnfor = .true.,
tstress = .true.,
disk_io = 'low',
/
&SYSTEM
ibrav = 14,
celldm(1) = 3.05001797E+001,
celldm(2) = 1.00000000E+000,
celldm(3) = 1.00000000E+000,
celldm(4) = 0.00000000E+000,
celldm(5) = 0.00000000E+000,
celldm(6) = 0.00000000E+000,
nat = 256,
ntyp = 1,
ecutwfc = 35,
ecutrho = 208,
occupations = 'smearing',
smearing = 'mv',
degauss = 5.00000007E-002,
/
&ELECTRONS
diagonalization = 'david',
mixing_mode = plain,
mixing_beta = 6.99999988E-001,
conv_thr = 1.00000000E-007,
/
&IONS
ion_dynamics = 'bfgs',
/
&CELL
cell_dynamics = 'bfgs',
press = 0.00000000E+000,
cell_factor = 2.00000000E+000,
/
ATOMIC_SPECIES
Al  2.69815390E+001  Al.pbe-n-kjpaw_psl.0.1.UPF
ATOMIC_POSITIONS crystal
Al  2.43251756E-003  8.65840058E-006  9.06668826E-004
Al  1.25229576E-001  1.27220553E-001  -5.08414292E-005
Al  1.23092704E-001  2.03605903E-004  1.22967177E-001
Al  1.19173747E-003  1.25049469E-001  1.24970181E-001
Al  -9.27741262E-005  -2.12502479E-003  2.48560030E-001
Al  1.24460519E-001  1.24959110E-001  2.50487025E-001
Al  1.25878824E-001  7.13421744E-004  3.76911820E-001
Al  9.01642051E-004  1.24991042E-001  3.74974618E-001
Al  1.49831382E-003  -9.85210497E-004  4.99205108E-001
Al  1.25166476E-001  1.27471005E-001  4.98102149E-001
Al  1.25132098E-001  -2.42237066E-003  6.25018248E-001
Al  1.83514467E-005  1.25008460E-001  6.23144075E-001
Al  2.47754584E-003  -8.91204259E-006  7.49411287E-001
Al  1.24990943E-001  1.26666361E-001  7.49802934E-001
Al  1.22864588E-001  1.21286896E-003  8.77468728E-001
Al  -4.29260630E-005  1.24962982E-001  8.74768138E-001
Al  1.84599496E-005  2.47565423E-001  1.21081880E-003
Al  1.26054370E-001  3.75130109E-001  3.44672795E-004
Al  1.25987952E-001  2.51171170E-001  1.24944040E-001
Al  -2.40240027E-003  3.74944846E-001  1.27334528E-001
Al  8.06955869E-004  2.47727578E-001  2.50257362E-001
Al  1.24823452E-001  3.74423210E-001  2.49981756E-001
Al  1.26463867E-001  2.49514386E-001  3.77227598E-001
Al  2.24522932E-003  3.75018146E-001  3.75307496E-001
Al  -1.48548695E-003  2.47743414E-001  5.00044225E-001
Al  1.26061651E-001  3.74921130E-001  5.00428623E-001
Al  1.24981742E-001  2.50938711E-001  6.24990748E-001
Al  1.72412810E-004  3.76545202E-001  6.26909502E-001
Al  1.23147552E-004  2.50084307E-001  7.50413123E-001
Al  1.26028632E-001  3.75018438E-001  7.49116096E-001
Al  1.25018747E-001  2.51879939E-001  8.75482090E-001
Al  -1.93341314E-003  3.75018108E-001  8.73300771E-001
Al  -1.14104257E-003  5.00261206E-001  -2.21896645E-003
Al  1.24991456E-001  6.24811962E-001  2.42864670E-003
Al  1.26284469E-001  5.00020351E-001  1.24921706E-001
Al  5.64657363E-004  6.25110572E-001  1.25047439E-001
Al  -5.29333830E-005  4.99850775E-001  2.52150442E-001
Al  1.24319694E-001  6.25148681E-001  2.51600754E-001
Al  1.26430761E-001  5.00030123E-001  3.73362642E-001
Al  2.57955537E-004  6.22503231E-001  3.75309915E-001
Al  6.43856761E-004  5.01990588E-001  4.99965314E-001
Al  1.24981890E-001  6.24961655E-001  5.00734726E-001
Al  1.23360777E-001  4.97972653E-001  6.25412011E-001
Al  1.76792972E-003  6.27085220E-001  6.22846013E-001
Al  -5.71182390E-005  4.99950306E-001  7.51042197E-001
Al  1.25018488E-001  6.24592985E-001  7.47884292E-001
Al  1.26915891E-001  4.99991542E-001  8.74991612E-001
Al  -2.87275041E-004  6.27388259E-001  8.74911290E-001
Al  -1.63634341E-003  7.49980076E-001  1.30514390E-003
Al  1.25796497E-001  8.74012171E-001  1.49304215E-004
Al  1.25018925E-001  7.50017669E-001  1.23219383E-001
Al  2.81097901E-005  8.75027134E-001  1.25048843E-001
Al  7.76568219E-004  7.50008717E-001  2.50008379E-001
Al  1.27218543E-001  8.74621322E-001  2.49700156E-001
Al  1.22703004E-001  7.49815083E-001  3.72711727E-001
Al  2.32834319E-003  8.75008425E-001  3.75030831E-001
Al  1.98776441E-004  7.47523735E-001  5.02145439E-001
Al  1.23763299E-001  8.75088747E-001  4.99273280E-001
Al  1.22723929E-001  7.50736022E-001  6.25008443E-001
Al  2.38154430E-003  8.75157822E-001  6.22584879E-001
Al  -1.23153822E-004  7.49859346E-001  7.50051357E-001
Al  1.24972922E-001  8.77413917E-001  7.50480312E-001
Al  1.25018986E-001  7.50531977E-001  8.74981781E-001
Al  2.46717145E-003  8.77225356E-001  8.74847587E-001
Al  2.51292327E-001  -2.38418526E-003  -1.02111311E-003
Al  3.74961292E-001  1.23551851E-001  2.07679096E-003
Al  3.77443765E-001  -1.84316651E-005  1.25355998E-001
Al  2.50077690E-001  1.25543098E-001  1.26100143E-001
Al  2.50024158E-001  -1.84808388E-003  2.52495341E-001
Al  3.75414934E-001  1.24236522E-001  2.49510937E-001
Al  3.75716128E-001  6.28898210E-004  3.75042619E-001
Al  2.50154855E-001  1.22647518E-001  3.74872665E-001
Al  2.51438111E-001  -2.45498173E-003  4.98613747E-001
Al  3.75008407E-001  1.23039319E-001  5.00009085E-001
Al  3.73484304E-001  -2.88033597E-004  6.25239299E-001
Al  2.50018392E-001  1.26519079E-001  6.24909927E-001
Al  2.49547095E-001  2.03675198E-003  7.48886977E-001
Al  3.72932996E-001  1.23286681E-001  7.49931476E-001
Al  3.77315396E-001  -1.87330333E-004  8.76208481E-001
Al  2.50081733E-001  1.26230743E-001  8.74216881E-001
Al  2.48732458E-001  2.49991576E-001  2.49323185E-003
Al  3.75083123E-001  3.75607102E-001  -6.10188802E-004
Al  3.72769562E-001  2.50009617E-001  1.27078757E-001
Al  2.47630808E-001  3.74863067E-001  1.25176760E-001
Al  2.49306318E-001  2.49869911E-001  2.48561356E-001
Al  3.75506466E-001  3.76381755E-001  2.52291886E-001
Al  3.77492597E-001  2.50138817E-001  3.75170254E-001
Al  2.49864807E-001  3.74486382E-001  3.73955102E-001
Al  2.50975995E-001  2.52106077E-001  4.99476456E-001
Al  3.77473411E-001  3.75018857E-001  4.97500059E-001
Al  3.75155933E-001  2.50055561E-001  6.22968256E-001
Al  2.49991625E-001  3.74770061E-001  6.26847543E-001
Al  2.49937024E-001  2.50020261E-001  7.47672355E-001
Al  3.72511951E-001  3.76659035E-001  7.50237575E-001
Al  3.74046965E-001  2.49981247E-001  8.72504777E-001
Al  2.49489141E-001  3.76554634E-001  8.74719008E-001
Al  2.47621729E-001  4.99831428E-001  1.75676965E-003
Al  3.74529674E-001  6.25239342E-001  2.48357053E-003
Al  3.75168250E-001  5.02442701E-001  1.22528063E-001
Al  2.48968979E-001  6.24950777E-001  1.24581944E-001
Al  2.47698962E-001  5.00982311E-001  2.49907224E-001
Al  3.74991431E-001  6.22770050E-001  2.48764537E-001
Al  3.74423982E-001  5.00416157E-001  3.72786125E-001
Al  2.48537683E-001  6.24967516E-001  3.74974605E-001
Al  2.50801729E-001  5.01854798E-001  4.99602811E-001
Al  3.76153414E-001  6.25045714E-001  5.00487104E-001
Al  3.74913308E-001  5.00076135E-001  6.26991984E-001
Al  2.50400643E-001  6.24106692E-001  6.26573701E-001
Al  2.47539249E-001  4.97562438E-001  7.48271660E-001
Al  3.76312332E-001  6.22501269E-001  7.49936828E-001
Al  3.75175742E-001  4.99643560E-001  8.74716641E-001
Al  2.51298355E-001  6.27397252E-001  8.74156538E-001
Al  2.52125737E-001  7.50980892E-001  1.02557202E-003
Al  3.77238494E-001  8.76174778E-001  2.31249498E-003
Al  3.75020148E-001  7.48790126E-001  1.24954525E-001
Al  2.52423141E-001  8.75128029E-001  1.25767321E-001
Al  2.49885068E-001  7.49979694E-001  2.50008887E-001
Al  3.72978216E-001  8.74900351E-001  2.50420762E-001
Al  3.75626406E-001  7.50018305E-001  3.74990263E-001
Al  2.49478572E-001  8.76227170E-001  3.75019457E-001
Al  2.49841747E-001  7.48429657E-001  5.01240361E-001
Al  3.75819112E-001  8.76103172E-001  5.00203382E-001
Al  3.76455111E-001  7.50131337E-001  6.25008434E-001
Al  2.49327425E-001  8.74805477E-001  6.26531140E-001
Al  2.51573648E-001  7.48508106E-001  7.50139045E-001
Al  3.75036668E-001  8.75538474E-001  7.49116163E-001
Al  3.72841893E-001  7.47680956E-001  8.74821720E-001
Al  2.49738188E-001  8.77259518E-001  8.72758411E-001
Al  5.00008378E-001  -8.75490711E-006  1.75619204E-004
Al  6.25018525E-001  1.22505715E-001  -5.01847087E-004
Al  6.23794226E-001  -1.34774374E-004  1.25018608E-001
Al  5.00100909E-001  1.25608379E-001  1.25045680E-001
Al  5.00019670E-001  -1.57027422E-003  2.50161521E-001
Al  6.22682611E-001  1.25018142E-001  2.50396388E-001
Al  6.25034757E-001  5.97799363E-004  3.72865437E-001
Al  5.02435941E-001  1.25155944E-001  3.75347662E-001
Al  4.99831596E-001  1.03415428E-004  5.00061717E-001
Al  6.22617900E-001  1.24064511E-001  5.02436176E-001
Al  6.22507112E-001  5.09876599E-004  6.25028304E-001
Al  5.00115429E-001  1.24768796E-001  6.24690818E-001
Al  5.00765006E-001  -9.97125466E-005  7.48804472E-001
Al  6.23105339E-001  1.26393927E-001  7.50319233E-001
Al  6.27405685E-001  -1.21717821E-003  8.75009828E-001
Al  5.00781174E-001  1.26303492E-001  8.75021401E-001
Al  4.99159559E-001  2.50008508E-001  8.46920303E-006
Al  6.25899865E-001  3.75018448E-001  -8.91931763E-006
Al  6.25019919E-001  2.52079825E-001  1.25026061E-001
Al  5.00032020E-001  3.75638261E-001  1.23009444E-001
Al  5.02104811E-001  2.47538418E-001  2.50602635E-001
Al  6.23117951E-001  3.75178856E-001  2.49219696E-001
Al  6.27355380E-001  2.50365828E-001  3.77163041E-001
Al  5.00049708E-001  3.76453048E-001  3.74159689E-001
Al  5.02493378E-001  2.49592605E-001  4.99973914E-001
Al  6.24991617E-001  3.77432038E-001  5.00211491E-001
Al  6.24074311E-001  2.50036656E-001  6.24981720E-001
Al  5.01805203E-001  3.73262566E-001  6.22505718E-001
Al  4.99652121E-001  2.49669577E-001  7.49968267E-001
Al  6.25066350E-001  3.74932037E-001  7.48879165E-001
Al  6.22950838E-001  2.48499324E-001  8.75447049E-001
Al  5.01600683E-001  3.74981182E-001  8.77046941E-001
Al  5.00094862E-001  4.99163573E-001  -6.16579317E-005
Al  6.24965654E-001  6.25304207E-001  -4.45088004E-004
Al  6.25258865E-001  4.99535502E-001  1.26122826E-001
Al  4.98952821E-001  6.25460481E-001  1.25294978E-001
Al  5.00009116E-001  4.99991545E-001  2.49942748E-001
Al  6.24862396E-001  6.26434293E-001  2.48860083E-001
Al  6.27003692E-001  5.00387360E-001  3.75059868E-001
Al  4.99981154E-001  6.24643808E-001  3.73357523E-001
Al  5.00711339E-001  5.00881942E-001  4.97594051E-001
Al  6.25008857E-001  6.26327153E-001  5.00394948E-001
Al  6.24962887E-001  5.00673691E-001  6.25034540E-001
Al  5.02494266E-001  6.24432244E-001  6.23750050E-001
Al  5.00018393E-001  4.99976303E-001  7.49990158E-001
Al  6.24981946E-001  6.25060494E-001  7.48722086E-001
Al  6.25648837E-001  5.00064435E-001  8.75027797E-001
Al  5.01500054E-001  6.25338211E-001  8.77080168E-001
Al  4.99292059E-001  7.49629839E-001  2.48740171E-003
Al  6.25018724E-001  8.75026764E-001  -2.34014341E-003
Al  6.25827329E-001  7.49591943E-001  1.22896045E-001
Al  5.01175336E-001  8.75782083E-001  1.24313491E-001
Al  5.00082041E-001  7.52058130E-001  2.48474639E-001
Al  6.23464372E-001  8.77313576E-001  2.48330334E-001
Al  6.26962808E-001  7.50551300E-001  3.77443419E-001
Al  5.01830122E-001  8.74830445E-001  3.75694137E-001
Al  5.02499880E-001  7.51726756E-001  5.01810829E-001
Al  6.27282291E-001  8.75089687E-001  5.02126301E-001
Al  6.25286175E-001  7.50024234E-001  6.23575995E-001
Al  5.00009056E-001  8.72835384E-001  6.23976231E-001
Al  4.99511569E-001  7.50964674E-001  7.52073859E-001
Al  6.25008557E-001  8.77106977E-001  7.52292823E-001
Al  6.24978091E-001  7.51866623E-001  8.74167157E-001
Al  4.99951552E-001  8.74532376E-001  8.72744013E-001
Al  7.50677410E-001  1.80057321E-003  -1.55253609E-003
Al  8.73257846E-001  1.24821672E-001  1.01392042E-003
Al  8.73531830E-001  -1.92031618E-005  1.24939113E-001
Al  7.50018952E-001  1.24615645E-001  1.25096345E-001
Al  7.47631443E-001  8.56556614E-006  2.50753309E-001
Al  8.73198972E-001  1.22517109E-001  2.50043226E-001
Al  8.73919146E-001  -1.10365930E-003  3.74514625E-001
Al  7.52211672E-001  1.24010010E-001  3.74210829E-001
Al  7.50303952E-001  7.45717721E-004  5.00480375E-001
Al  8.73278554E-001  1.23442983E-001  5.01628091E-001
Al  8.72952169E-001  1.29144776E-003  6.25372129E-001
Al  7.48819089E-001  1.23532535E-001  6.22617425E-001
Al  7.49865869E-001  -2.48807158E-005  7.51182687E-001
Al  8.74959195E-001  1.23008480E-001  7.50056338E-001
Al  8.72830454E-001  -2.43854333E-003  8.74642050E-001
Al  7.50367461E-001  1.25544651E-001  8.72859507E-001
Al  7.52130905E-001  2.49829014E-001  -2.38802997E-004
Al  8.74331729E-001  3.75206712E-001  -2.28203936E-003
Al  8.72501819E-001  2.52445896E-001  1.24991258E-001
Al  7.49587666E-001  3.74980965E-001  1.27341313E-001
Al  7.50815057E-001  2.48157147E-001  2.50861439E-001
Al  8.74911580E-001  3.74711580E-001  2.49934053E-001
Al  8.74943230E-001  2.49966312E-001  3.75060517E-001
Al  7.51037156E-001  3.73924369E-001  3.73328854E-001
Al  7.49871869E-001  2.50938859E-001  4.99340980E-001
Al  8.75082880E-001  3.72931278E-001  5.00314099E-001
Al  8.74981657E-001  2.49046013E-001  6.24962178E-001
Al  7.48519985E-001  3.73999293E-001  6.26544891E-001
Al  7.52273986E-001  2.50099556E-001  7.49640975E-001
Al  8.72729458E-001  3.76857013E-001  7.50676790E-001
Al  8.75741825E-001  2.52485835E-001  8.75630130E-001
Al  7.49797404E-001  3.75047922E-001  8.75009445E-001
Al  7.50656923E-001  4.99557356E-001  2.75079270E-004
Al  8.72552377E-001  6.23069738E-001  3.03364338E-005
Al  8.76352797E-001  5.00421558E-001  1.25008819E-001
Al  7.50047499E-001  6.24967511E-001  1.27105888E-001
Al  7.50027343E-001  5.00035447E-001  2.49852878E-001
Al  8.73125526E-001  6.25019404E-001  2.49981699E-001
Al  8.73569042E-001  5.02000020E-001  3.75008451E-001
Al  7.52117304E-001  6.25172788E-001  3.72694258E-001
Al  7.49673077E-001  5.00032407E-001  5.01552020E-001
Al  8.75039941E-001  6.24871115E-001  4.99651610E-001
Al  8.77443669E-001  4.99490565E-001  6.24522934E-001
Al  7.48607167E-001  6.23198583E-001  6.24178798E-001
Al  7.51797898E-001  5.00881070E-001  7.47579951E-001
Al  8.74980317E-001  6.23762871E-001  7.49869043E-001
Al  8.75051783E-001  4.97752558E-001  8.75522030E-001
Al  7.50033039E-001  6.25775563E-001  8.74974760E-001
Al  7.49958467E-001  7.49888313E-001  2.08860952E-004
Al  8.74746132E-001  8.73597162E-001  -1.56617731E-004
Al  8.75376742E-001  7.51722268E-001  1.25614672E-001
Al  7.49315489E-001  8.75009622E-001  1.22528521E-001
Al  7.50018030E-001  7.49964181E-001  2.49981416E-001
Al  8.72679830E-001  8.74929924E-001  2.50157439E-001
Al  8.75062829E-001  7.47910354E-001  3.76641626E-001
Al  7.49972638E-001  8.77383646E-001  3.77492419E-001
Al  7.52062070E-001  7.50446129E-001  5.01147551E-001
Al  8.73446937E-001  8.76600140E-001  4.99103927E-001
Al  8.74093844E-001  7.51172629E-001  6.24890219E-001
Al  7.48712501E-001  8.73843731E-001  6.26677640E-001
Al  7.50008680E-001  7.49863924E-001  7.52493841E-001
Al  8.73040890E-001  8.75395659E-001  7.48995938E-001
Al  8.75358814E-001  7.49395989E-001  8.77198076E-001
Al  7.47710540E-001  8.75239899E-001  8.72834789E-001
K_POINTS automatic
2 2 2 1 1 1
