&CONTROL
restart_mode = 'from_scratch',
calculation = 'scf',
outdir = '/gpfs/bb/bxp912/scratch',
pseudo_dir = '/gpfs/bb/bxp912/pseudopotentials',
prefix = '2.48000000E-001',
etot_conv_thr = 1.00000000E-007,
forc_conv_thr = 1.00000000E-007,
nstep = 200,
tprnfor = .true.,
tstress = .true.,
disk_io = 'low',
/
&SYSTEM
ibrav = 14,
celldm(1) = 3.05001797E+001,
celldm(2) = 1.00000000E+000,
celldm(3) = 1.00000000E+000,
celldm(4) = 0.00000000E+000,
celldm(5) = 0.00000000E+000,
celldm(6) = 0.00000000E+000,
nat = 256,
ntyp = 1,
ecutwfc = 35,
ecutrho = 208,
occupations = 'smearing',
smearing = 'mv',
degauss = 5.00000007E-002,
/
&ELECTRONS
diagonalization = 'david',
mixing_mode = plain,
mixing_beta = 6.99999988E-001,
conv_thr = 1.00000000E-007,
/
&IONS
ion_dynamics = 'bfgs',
/
&CELL
cell_dynamics = 'bfgs',
press = 0.00000000E+000,
cell_factor = 2.00000000E+000,
/
ATOMIC_SPECIES
Al  2.69815390E+001  Al.pbe-n-kjpaw_psl.0.1.UPF
ATOMIC_POSITIONS crystal
Al  2.49995015E-003  -2.49433549E-003  1.19535424E-003
Al  1.24403502E-001  1.24578784E-001  -2.45878001E-003
Al  1.25621901E-001  1.92172031E-003  1.24920819E-001
Al  -3.27878520E-005  1.23204506E-001  1.24794555E-001
Al  6.21895962E-004  -2.02930268E-005  2.51198846E-001
Al  1.24646393E-001  1.27456218E-001  2.50354163E-001
Al  1.24919717E-001  8.65371740E-006  3.72547493E-001
Al  -4.12742876E-004  1.25033655E-001  3.74953136E-001
Al  -3.00998103E-004  -9.51098904E-004  5.02496664E-001
Al  1.26268911E-001  1.22700287E-001  5.02197889E-001
Al  1.22737616E-001  -2.04415675E-003  6.24935989E-001
Al  1.01171528E-003  1.24789786E-001  6.22925394E-001
Al  1.84197248E-003  1.28690540E-003  7.49928816E-001
Al  1.26292443E-001  1.24701232E-001  7.50029403E-001
Al  1.23704073E-001  -3.81378205E-005  8.72773319E-001
Al  -2.54599615E-005  1.22855066E-001  8.74290374E-001
Al  -1.59480104E-003  2.50293385E-001  -5.09044670E-004
Al  1.25819654E-001  3.72943478E-001  3.13008561E-005
Al  1.25072851E-001  2.50777407E-001  1.26959116E-001
Al  4.48519512E-005  3.77483749E-001  1.26195705E-001
Al  -1.87657115E-003  2.50230953E-001  2.47607488E-001
Al  1.23046957E-001  3.76103594E-001  2.49981597E-001
Al  1.22585249E-001  2.50247795E-001  3.75678951E-001
Al  4.82874348E-005  3.76270188E-001  3.72500949E-001
Al  1.16861088E-003  2.48630209E-001  4.99965496E-001
Al  1.24836581E-001  3.72533835E-001  4.98793990E-001
Al  1.24926743E-001  2.52244358E-001  6.24743150E-001
Al  -5.49300442E-004  3.75035188E-001  6.23961090E-001
Al  -2.56608183E-004  2.50829366E-001  7.47840080E-001
Al  1.25008370E-001  3.75823261E-001  7.50084884E-001
Al  1.23016264E-001  2.47873453E-001  8.77484224E-001
Al  4.31152739E-004  3.75434428E-001  8.74743195E-001
Al  -2.10722886E-003  5.00074897E-001  2.18605513E-003
Al  1.24980015E-001  6.25313982E-001  -5.29048538E-005
Al  1.25035727E-001  4.97796769E-001  1.27254923E-001
Al  1.60279467E-003  6.25794958E-001  1.25163785E-001
Al  -2.22019112E-003  5.00018295E-001  2.49981256E-001
Al  1.22519005E-001  6.24841654E-001  2.49838446E-001
Al  1.24981886E-001  4.98430692E-001  3.75081610E-001
Al  1.47691171E-004  6.24445189E-001  3.74583338E-001
Al  -8.55409579E-004  5.00795157E-001  4.97681497E-001
Al  1.26263996E-001  6.25393679E-001  5.01336674E-001
Al  1.24936298E-001  5.02473281E-001  6.25022376E-001
Al  -7.56020408E-005  6.25077314E-001  6.27285995E-001
Al  -2.07171748E-003  4.99981003E-001  7.50232843E-001
Al  1.24974980E-001  6.24598557E-001  7.51188431E-001
Al  1.24965935E-001  4.99978637E-001  8.76961020E-001
Al  -3.42781668E-005  6.25838775E-001  8.75018190E-001
Al  4.20943986E-004  7.47601997E-001  -3.48066785E-005
Al  1.23796425E-001  8.75008578E-001  -2.37618780E-004
Al  1.24990938E-001  7.48539242E-001  1.27485650E-001
Al  1.72592048E-005  8.76451456E-001  1.24330330E-001
Al  -1.01383748E-004  7.49551109E-001  2.48696730E-001
Al  1.24715464E-001  8.75805080E-001  2.47620067E-001
Al  1.26296529E-001  7.48944481E-001  3.73807677E-001
Al  -2.32332408E-005  8.75022396E-001  3.75180825E-001
Al  -2.37903685E-003  7.52495140E-001  5.00500075E-001
Al  1.26155810E-001  8.75018645E-001  4.99558789E-001
Al  1.25122180E-001  7.50602107E-001  6.25067775E-001
Al  -1.00963439E-003  8.74897347E-001  6.23011476E-001
Al  -1.81191359E-005  7.49837221E-001  7.52226751E-001
Al  1.25224386E-001  8.74980075E-001  7.51383382E-001
Al  1.27207807E-001  7.52351996E-001  8.72689363E-001
Al  -2.08904901E-004  8.74548512E-001  8.73894130E-001
Al  2.50061179E-001  6.64071021E-004  -8.44572657E-006
Al  3.74368373E-001  1.25134455E-001  9.73875859E-004
Al  3.73147161E-001  -5.13228328E-005  1.22731116E-001
Al  2.49656624E-001  1.24768048E-001  1.25238737E-001
Al  2.51755005E-001  -2.49320139E-003  2.47912523E-001
Al  3.75279373E-001  1.24554142E-001  2.48691188E-001
Al  3.75810301E-001  1.92859903E-005  3.74199269E-001
Al  2.52257895E-001  1.27469645E-001  3.76927587E-001
Al  2.47502296E-001  2.68634988E-004  5.02082760E-001
Al  3.75197414E-001  1.24901533E-001  4.99561829E-001
Al  3.74621312E-001  4.45287721E-004  6.24645345E-001
Al  2.49156695E-001  1.23523730E-001  6.27485322E-001
Al  2.47620751E-001  -1.26862507E-004  7.47548891E-001
Al  3.75008962E-001  1.27457869E-001  7.51769208E-001
Al  3.74554878E-001  2.22440277E-003  8.75008531E-001
Al  2.51914894E-001  1.25160792E-001  8.74879453E-001
Al  2.49980516E-001  2.47502117E-001  -1.22744374E-003
Al  3.72927423E-001  3.75956116E-001  -2.19205345E-004
Al  3.75009251E-001  2.50040932E-001  1.22604567E-001
Al  2.51204486E-001  3.75270641E-001  1.26557428E-001
Al  2.49981427E-001  2.50018257E-001  2.52221851E-001
Al  3.75230060E-001  3.76641985E-001  2.52184179E-001
Al  3.74990556E-001  2.50133834E-001  3.74462990E-001
Al  2.47504295E-001  3.73557745E-001  3.77365467E-001
Al  2.48714857E-001  2.47827144E-001  4.97517352E-001
Al  3.74872772E-001  3.75478715E-001  4.99100692E-001
Al  3.76986452E-001  2.48224138E-001  6.26962460E-001
Al  2.48391398E-001  3.76494237E-001  6.25675211E-001
Al  2.50913319E-001  2.47537771E-001  7.50017594E-001
Al  3.74788000E-001  3.75560250E-001  7.51099018E-001
Al  3.74449211E-001  2.49923157E-001  8.75626836E-001
Al  2.51964541E-001  3.75783012E-001  8.77034915E-001
Al  2.49604251E-001  5.00067701E-001  9.22437692E-004
Al  3.75826596E-001  6.26886186E-001  -1.86804590E-005
Al  3.75661877E-001  5.02245047E-001  1.26367548E-001
Al  2.48607462E-001  6.27240517E-001  1.24709942E-001
Al  2.50009198E-001  5.02420796E-001  2.49928490E-001
Al  3.74053206E-001  6.24843007E-001  2.50066845E-001
Al  3.75019326E-001  5.00744010E-001  3.77439266E-001
Al  2.50750761E-001  6.23353869E-001  3.75506115E-001
Al  2.50166382E-001  5.00075506E-001  5.00017218E-001
Al  3.77498652E-001  6.26312288E-001  4.98878066E-001
Al  3.75018707E-001  5.00536265E-001  6.24601404E-001
Al  2.50867333E-001  6.24775445E-001  6.24980614E-001
Al  2.48413881E-001  5.00235009E-001  7.52499937E-001
Al  3.74828976E-001  6.24653674E-001  7.48139154E-001
Al  3.76279071E-001  4.99633078E-001  8.75164751E-001
Al  2.48924852E-001  6.23698242E-001  8.75307683E-001
Al  2.51221722E-001  7.49708079E-001  1.69333107E-003
Al  3.74178698E-001  8.75814838E-001  -1.42844960E-004
Al  3.75008479E-001  7.50077624E-001  1.24753635E-001
Al  2.50403595E-001  8.73089322E-001  1.22662948E-001
Al  2.47503359E-001  7.52269977E-001  2.49973582E-001
Al  3.75019296E-001  8.75415662E-001  2.50120227E-001
Al  3.74775910E-001  7.50853457E-001  3.73779415E-001
Al  2.50018884E-001  8.77485746E-001  3.77485398E-001
Al  2.50018108E-001  7.49683604E-001  4.99893667E-001
Al  3.73334634E-001  8.74270465E-001  4.99193418E-001
Al  3.76080104E-001  7.50067015E-001  6.25034875E-001
Al  2.49797351E-001  8.72572760E-001  6.24966814E-001
Al  2.52139727E-001  7.50274236E-001  7.50210612E-001
Al  3.73662159E-001  8.77197426E-001  7.49991354E-001
Al  3.75091337E-001  7.48016856E-001  8.72538637E-001
Al  2.49507871E-001  8.72644028E-001  8.72887868E-001
Al  5.00032649E-001  -6.10005942E-005  2.47764215E-003
Al  6.24671258E-001  1.23355698E-001  1.49268066E-003
Al  6.23136367E-001  6.72027562E-004  1.24991422E-001
Al  4.99933921E-001  1.24536296E-001  1.24973186E-001
Al  4.99893849E-001  1.40322875E-003  2.49694428E-001
Al  6.25018362E-001  1.25008377E-001  2.51607208E-001
Al  6.25163618E-001  1.51781235E-003  3.77002463E-001
Al  4.98029795E-001  1.25112251E-001  3.76841073E-001
Al  5.00109861E-001  -9.12026655E-004  4.99366030E-001
Al  6.23830040E-001  1.23649262E-001  5.02415542E-001
Al  6.25482300E-001  1.60305223E-003  6.23403208E-001
Al  4.97849477E-001  1.25008457E-001  6.24979790E-001
Al  4.99758834E-001  2.18799147E-003  7.47880181E-001
Al  6.24937775E-001  1.25208663E-001  7.50036245E-001
Al  6.23402381E-001  2.17087702E-003  8.76228765E-001
Al  4.98110474E-001  1.24967036E-001  8.77441626E-001
Al  4.97952474E-001  2.50026648E-001  -2.34241666E-003
Al  6.25009500E-001  3.77192532E-001  1.21157180E-003
Al  6.25575145E-001  2.49590550E-001  1.24990470E-001
Al  4.99396248E-001  3.74465516E-001  1.24694161E-001
Al  4.99745794E-001  2.50225997E-001  2.49665686E-001
Al  6.25035257E-001  3.74976675E-001  2.51362992E-001
Al  6.22766433E-001  2.51506615E-001  3.77467808E-001
Al  5.00206020E-001  3.74982870E-001  3.74894653E-001
Al  4.99276733E-001  2.48981291E-001  4.97610653E-001
Al  6.25029697E-001  3.74641382E-001  5.00207267E-001
Al  6.23443038E-001  2.50115062E-001  6.24940120E-001
Al  4.99690694E-001  3.75335488E-001  6.27494286E-001
Al  4.99929629E-001  2.51526665E-001  7.49991381E-001
Al  6.27481296E-001  3.74981658E-001  7.49968264E-001
Al  6.22508324E-001  2.49951251E-001  8.74265994E-001
Al  5.02474939E-001  3.76385933E-001  8.72685408E-001
Al  5.02190898E-001  4.98206252E-001  -9.08670968E-006
Al  6.25008898E-001  6.27299981E-001  -8.89335869E-004
Al  6.26575876E-001  5.01823795E-001  1.24962850E-001
Al  4.99609595E-001  6.24629594E-001  1.22845086E-001
Al  4.99755373E-001  4.99979710E-001  2.50496593E-001
Al  6.24875869E-001  6.25025782E-001  2.50294189E-001
Al  6.24991440E-001  5.00082754E-001  3.74953910E-001
Al  5.00079080E-001  6.24974038E-001  3.72719752E-001
Al  5.00082175E-001  4.98230730E-001  5.00408729E-001
Al  6.22561530E-001  6.24941738E-001  4.97582561E-001
Al  6.25031777E-001  4.99980598E-001  6.22919409E-001
Al  4.98224043E-001  6.23722375E-001  6.26002480E-001
Al  4.99133117E-001  4.99965080E-001  7.50023642E-001
Al  6.22939034E-001  6.24507769E-001  7.51580537E-001
Al  6.24968184E-001  5.00120315E-001  8.75129118E-001
Al  4.99834436E-001  6.24276608E-001  8.74736978E-001
Al  5.00154431E-001  7.50008373E-001  -9.22884186E-006
Al  6.27396833E-001  8.75018110E-001  -2.30052212E-004
Al  6.25020717E-001  7.51070695E-001  1.27314488E-001
Al  4.97545831E-001  8.77224538E-001  1.25111239E-001
Al  4.99938905E-001  7.49981807E-001  2.50870040E-001
Al  6.25343945E-001  8.73508144E-001  2.51812617E-001
Al  6.26650791E-001  7.50185126E-001  3.75068587E-001
Al  4.99653678E-001  8.73310711E-001  3.75549414E-001
Al  5.00470327E-001  7.50017121E-001  4.97500444E-001
Al  6.23710220E-001  8.72588541E-001  4.97807557E-001
Al  6.25020236E-001  7.50065584E-001  6.27392915E-001
Al  4.99244166E-001  8.75009221E-001  6.24582501E-001
Al  4.99978008E-001  7.47683300E-001  7.50008980E-001
Al  6.22784429E-001  8.77496051E-001  7.49742852E-001
Al  6.27034155E-001  7.50268869E-001  8.75028243E-001
Al  5.01837515E-001  8.76265865E-001  8.74978216E-001
Al  7.49913733E-001  6.43961480E-005  -7.55559790E-004
Al  8.75069986E-001  1.24968386E-001  -2.47773977E-003
Al  8.72813729E-001  -5.50583302E-004  1.22768147E-001
Al  7.52132934E-001  1.23398730E-001  1.22880111E-001
Al  7.50009219E-001  3.40522884E-004  2.47510810E-001
Al  8.74366727E-001  1.25180176E-001  2.50018485E-001
Al  8.73716600E-001  9.11904039E-006  3.74328684E-001
Al  7.48899298E-001  1.22534202E-001  3.75184753E-001
Al  7.50843875E-001  -5.35305822E-004  4.99991145E-001
Al  8.72797379E-001  1.25127520E-001  5.02306837E-001
Al  8.74213386E-001  -2.44432305E-003  6.22906667E-001
Al  7.49193615E-001  1.25018803E-001  6.26372683E-001
Al  7.49643155E-001  2.14815600E-004  7.52371852E-001
Al  8.77352333E-001  1.25008470E-001  7.49791337E-001
Al  8.77249600E-001  -2.30002515E-004  8.75685890E-001
Al  7.49881577E-001  1.26509315E-001  8.74991483E-001
Al  7.50935983E-001  2.47996950E-001  7.29711507E-005
Al  8.73016160E-001  3.74846890E-001  -2.17438307E-003
Al  8.76845702E-001  2.49718449E-001  1.26648000E-001
Al  7.50019774E-001  3.74405455E-001  1.24890139E-001
Al  7.49981573E-001  2.51782447E-001  2.49941553E-001
Al  8.76815662E-001  3.73837755E-001  2.48484742E-001
Al  8.74094308E-001  2.49390794E-001  3.75307363E-001
Al  7.52478370E-001  3.76383668E-001  3.73028412E-001
Al  7.47738781E-001  2.49558923E-001  5.00021579E-001
Al  8.77253169E-001  3.74932129E-001  4.99338243E-001
Al  8.77239530E-001  2.47684396E-001  6.24962563E-001
Al  7.48502908E-001  3.76500572E-001  6.27422326E-001
Al  7.50500623E-001  2.50645779E-001  7.50076298E-001
Al  8.77414647E-001  3.77492878E-001  7.49848579E-001
Al  8.76876920E-001  2.49353820E-001  8.74200159E-001
Al  7.49672692E-001  3.75138246E-001  8.74569675E-001
Al  7.50214657E-001  5.00022511E-001  -2.48704151E-003
Al  8.75221434E-001  6.27306852E-001  -2.40458244E-003
Al  8.75059806E-001  5.00275236E-001  1.26947182E-001
Al  7.49961940E-001  6.24977909E-001  1.25017179E-001
Al  7.50362044E-001  4.99248619E-001  2.47563595E-001
Al  8.75129231E-001  6.25039529E-001  2.49852065E-001
Al  8.72977490E-001  4.99905277E-001  3.74957074E-001
Al  7.48309035E-001  6.25153946E-001  3.75316149E-001
Al  7.49849707E-001  5.01464476E-001  4.99966734E-001
Al  8.74945133E-001  6.26676796E-001  4.99991624E-001
Al  8.77329343E-001  4.99963054E-001  6.24386994E-001
Al  7.47634164E-001  6.27388864E-001  6.26921880E-001
Al  7.48026720E-001  5.00208616E-001  7.49522715E-001
Al  8.75992065E-001  6.22504943E-001  7.47836920E-001
Al  8.77495789E-001  5.01602642E-001  8.74459970E-001
Al  7.47534157E-001  6.24980019E-001  8.75018287E-001
Al  7.49216764E-001  7.52092126E-001  -1.13376618E-004
Al  8.76696066E-001  8.77465246E-001  1.82655348E-005
Al  8.73920988E-001  7.48800465E-001  1.23357445E-001
Al  7.51359474E-001  8.74522664E-001  1.25008375E-001
Al  7.51499711E-001  7.51986192E-001  2.50045275E-001
Al  8.77420529E-001  8.74909007E-001  2.49632165E-001
Al  8.74874863E-001  7.51210787E-001  3.76654059E-001
Al  7.50688230E-001  8.75268092E-001  3.73730238E-001
Al  7.48047018E-001  7.52072500E-001  5.02186022E-001
Al  8.74736956E-001  8.75008533E-001  4.99846933E-001
Al  8.77480196E-001  7.52465077E-001  6.22559849E-001
Al  7.49893494E-001  8.74305783E-001  6.24263641E-001
Al  7.50344668E-001  7.50018221E-001  7.49021374E-001
Al  8.73726323E-001  8.77305243E-001  7.49953541E-001
Al  8.76562560E-001  7.47565733E-001  8.76469118E-001
Al  7.48947771E-001  8.74774959E-001  8.75537185E-001
K_POINTS automatic
2 2 2 1 1 1
