&CONTROL
restart_mode = 'from_scratch',
calculation = 'scf',
outdir = '/gpfs/bb/bxp912/scratch',
pseudo_dir = '/gpfs/bb/bxp912/pseudopotentials',
prefix = '2.48000000E-001',
etot_conv_thr = 1.00000000E-007,
forc_conv_thr = 1.00000000E-007,
nstep = 200,
tprnfor = .true.,
tstress = .true.,
disk_io = 'low',
/
&SYSTEM
ibrav = 14,
celldm(1) = 3.05001797E+001,
celldm(2) = 1.00000000E+000,
celldm(3) = 1.00000000E+000,
celldm(4) = 0.00000000E+000,
celldm(5) = 0.00000000E+000,
celldm(6) = 0.00000000E+000,
nat = 256,
ntyp = 1,
ecutwfc = 35,
ecutrho = 208,
occupations = 'smearing',
smearing = 'mv',
degauss = 5.00000007E-002,
/
&ELECTRONS
diagonalization = 'david',
mixing_mode = plain,
mixing_beta = 6.99999988E-001,
conv_thr = 1.00000000E-007,
/
&IONS
ion_dynamics = 'bfgs',
/
&CELL
cell_dynamics = 'bfgs',
press = 0.00000000E+000,
cell_factor = 2.00000000E+000,
/
ATOMIC_SPECIES
Al  2.69815390E+001  Al.pbe-n-kjpaw_psl.0.1.UPF
ATOMIC_POSITIONS crystal
Al  2.47966611E-003  -1.46236176E-003  -1.81127938E-005
Al  1.24990311E-001  1.27479043E-001  2.22120155E-005
Al  1.24646168E-001  -2.48518117E-003  1.24913127E-001
Al  -8.75003291E-005  1.24759861E-001  1.25135264E-001
Al  8.55768935E-006  1.58772838E-003  2.50219581E-001
Al  1.24705890E-001  1.26999116E-001  2.50044147E-001
Al  1.25018208E-001  -1.98596466E-003  3.74864631E-001
Al  -1.87476746E-003  1.23633015E-001  3.76062848E-001
Al  -5.46185732E-004  -9.47614295E-005  4.97625986E-001
Al  1.25008391E-001  1.23501210E-001  4.99521934E-001
Al  1.25008374E-001  -1.63313049E-003  6.25162190E-001
Al  2.49561758E-003  1.24500453E-001  6.24244960E-001
Al  1.82421504E-005  2.46665066E-003  7.50077122E-001
Al  1.27412281E-001  1.23244094E-001  7.48550928E-001
Al  1.27454958E-001  -2.49955164E-003  8.74955433E-001
Al  1.05939182E-003  1.24459431E-001  8.77435576E-001
Al  2.29606405E-003  2.49981863E-001  -1.23594958E-003
Al  1.24931762E-001  3.75039414E-001  -1.73303176E-003
Al  1.27376668E-001  2.52468993E-001  1.24909147E-001
Al  1.62721962E-004  3.72578040E-001  1.25022472E-001
Al  8.92654336E-005  2.50751846E-001  2.49844001E-001
Al  1.23407815E-001  3.73807061E-001  2.49608109E-001
Al  1.26768907E-001  2.50144335E-001  3.74981883E-001
Al  -7.79838113E-004  3.74803210E-001  3.74738218E-001
Al  1.24112805E-003  2.50535044E-001  4.99369959E-001
Al  1.24991559E-001  3.75221292E-001  5.00722426E-001
Al  1.24894022E-001  2.48197183E-001  6.24966822E-001
Al  -1.37798183E-004  3.75132773E-001  6.25018108E-001
Al  -1.66451801E-003  2.49916468E-001  7.48196927E-001
Al  1.23016000E-001  3.75163035E-001  7.47674274E-001
Al  1.24991225E-001  2.51371597E-001  8.74981552E-001
Al  6.74028952E-004  3.73243567E-001  8.73015933E-001
Al  1.84158321E-004  5.00018294E-001  3.33699568E-004
Al  1.24981848E-001  6.24991350E-001  -2.34541994E-003
Al  1.25154225E-001  5.00008408E-001  1.24813804E-001
Al  -7.57537840E-004  6.25018131E-001  1.27416812E-001
Al  -8.71675157E-006  4.99038242E-001  2.49700102E-001
Al  1.26744320E-001  6.25808700E-001  2.49638592E-001
Al  1.27419102E-001  5.00828701E-001  3.74955905E-001
Al  2.09007750E-003  6.25657876E-001  3.75178150E-001
Al  -1.39154186E-004  5.00169250E-001  5.02418605E-001
Al  1.25399215E-001  6.24324819E-001  5.02110985E-001
Al  1.22508276E-001  4.98617472E-001  6.25053570E-001
Al  -1.37014826E-004  6.22900529E-001  6.27277971E-001
Al  -1.87043214E-003  5.00348430E-001  7.50009114E-001
Al  1.27312819E-001  6.25008378E-001  7.51588210E-001
Al  1.27404830E-001  5.00446838E-001  8.77001923E-001
Al  2.09887369E-003  6.23140067E-001  8.75121739E-001
Al  1.05012357E-003  7.49926792E-001  -1.88973101E-003
Al  1.25008666E-001  8.74981583E-001  -1.16279347E-003
Al  1.26746644E-001  7.50484919E-001  1.25031566E-001
Al  -2.04646865E-004  8.76719240E-001  1.24981646E-001
Al  6.26706249E-005  7.49300451E-001  2.51041902E-001
Al  1.26869054E-001  8.75893453E-001  2.48703448E-001
Al  1.24274467E-001  7.50017798E-001  3.75630284E-001
Al  8.85988380E-006  8.76054777E-001  3.74475562E-001
Al  -4.07261911E-005  7.49198412E-001  5.00424773E-001
Al  1.25619280E-001  8.76288951E-001  4.99413008E-001
Al  1.25035003E-001  7.52495805E-001  6.27388931E-001
Al  8.30430672E-004  8.75008386E-001  6.25018856E-001
Al  2.20975006E-003  7.49812347E-001  7.50250954E-001
Al  1.25030830E-001  8.72525924E-001  7.52122802E-001
Al  1.25574885E-001  7.49713410E-001  8.73304806E-001
Al  2.10043472E-003  8.72536095E-001  8.75161717E-001
Al  2.48575583E-001  3.03341026E-004  9.57513889E-004
Al  3.73600864E-001  1.24636394E-001  -1.41409626E-003
Al  3.76411855E-001  -1.22037366E-004  1.24905433E-001
Al  2.52434389E-001  1.25018194E-001  1.25258440E-001
Al  2.50056717E-001  -8.69951240E-006  2.49947991E-001
Al  3.77457084E-001  1.27062103E-001  2.52402385E-001
Al  3.75848012E-001  -6.13918420E-004  3.75034970E-001
Al  2.50154937E-001  1.27424472E-001  3.73383353E-001
Al  2.49818226E-001  1.82552667E-003  5.00525838E-001
Al  3.74911642E-001  1.25095274E-001  5.00104191E-001
Al  3.74153924E-001  5.84687330E-004  6.24666796E-001
Al  2.50744821E-001  1.23408373E-001  6.23488730E-001
Al  2.49991282E-001  2.32891371E-003  7.49100230E-001
Al  3.74109119E-001  1.26743442E-001  7.50982041E-001
Al  3.74981141E-001  -2.60456927E-004  8.75040046E-001
Al  2.49991426E-001  1.25506642E-001  8.73932722E-001
Al  2.50400884E-001  2.50308443E-001  -2.55200827E-005
Al  3.74918561E-001  3.74981828E-001  2.54569323E-004
Al  3.74541814E-001  2.50008370E-001  1.22560913E-001
Al  2.50020755E-001  3.74952187E-001  1.22669799E-001
Al  2.48836386E-001  2.49977787E-001  2.47753703E-001
Al  3.75041884E-001  3.76329222E-001  2.49923139E-001
Al  3.75046226E-001  2.49427672E-001  3.74899726E-001
Al  2.52032025E-001  3.75065145E-001  3.73018940E-001
Al  2.50454492E-001  2.49931154E-001  4.99964646E-001
Al  3.75685731E-001  3.75032358E-001  5.00022889E-001
Al  3.75018822E-001  2.50290812E-001  6.25412715E-001
Al  2.49545719E-001  3.72948690E-001  6.26020841E-001
Al  2.51355445E-001  2.49990982E-001  7.49689809E-001
Al  3.77142674E-001  3.74937325E-001  7.52029874E-001
Al  3.73281200E-001  2.52217300E-001  8.75019691E-001
Al  2.49869876E-001  3.75018909E-001  8.74861203E-001
Al  2.49712015E-001  4.99911983E-001  -1.58288989E-004
Al  3.77274783E-001  6.23267704E-001  -1.84248710E-005
Al  3.77494485E-001  5.00264910E-001  1.24921997E-001
Al  2.50032326E-001  6.24081383E-001  1.24877006E-001
Al  2.51761021E-001  5.00047770E-001  2.47971301E-001
Al  3.77065500E-001  6.24991025E-001  2.47714616E-001
Al  3.74942267E-001  4.99981595E-001  3.76617010E-001
Al  2.47501080E-001  6.27160557E-001  3.76724037E-001
Al  2.49991622E-001  4.98826616E-001  4.99990469E-001
Al  3.72648499E-001  6.25324301E-001  5.00176394E-001
Al  3.74591513E-001  4.99981107E-001  6.26948744E-001
Al  2.52416222E-001  6.25008910E-001  6.22674060E-001
Al  2.51447947E-001  5.00815037E-001  7.47657074E-001
Al  3.74167899E-001  6.24232004E-001  7.50018229E-001
Al  3.76487919E-001  4.99956784E-001  8.74157098E-001
Al  2.47550659E-001  6.27218635E-001  8.72526474E-001
Al  2.50018226E-001  7.49991068E-001  1.05014208E-004
Al  3.76342582E-001  8.77289399E-001  -1.83297762E-003
Al  3.75327579E-001  7.48414247E-001  1.25207677E-001
Al  2.49516015E-001  8.74937338E-001  1.23526771E-001
Al  2.49991204E-001  7.50348535E-001  2.51769604E-001
Al  3.74964601E-001  8.75043311E-001  2.51157213E-001
Al  3.77089345E-001  7.50111113E-001  3.75017439E-001
Al  2.52041051E-001  8.74818818E-001  3.74786015E-001
Al  2.49991616E-001  7.48229023E-001  5.00008492E-001
Al  3.74981621E-001  8.75009356E-001  5.00601756E-001
Al  3.77169434E-001  7.52273472E-001  6.25042402E-001
Al  2.50418902E-001  8.75018128E-001  6.24939863E-001
Al  2.50172032E-001  7.49896287E-001  7.49020621E-001
Al  3.73270369E-001  8.74834827E-001  7.49606654E-001
Al  3.76818847E-001  7.48524188E-001  8.74858451E-001
Al  2.48054876E-001  8.75052815E-001  8.73046476E-001
Al  5.02388782E-001  1.20531057E-003  1.41324815E-004
Al  6.22547630E-001  1.24179785E-001  2.01246832E-003
Al  6.24814517E-001  2.00856018E-003  1.23906999E-001
Al  4.97699256E-001  1.25490073E-001  1.23390906E-001
Al  5.00049771E-001  4.96256181E-005  2.49711174E-001
Al  6.23669268E-001  1.24793407E-001  2.51222879E-001
Al  6.25008373E-001  -1.73923118E-004  3.75018128E-001
Al  5.01825591E-001  1.22667643E-001  3.74711454E-001
Al  5.00993269E-001  1.59199549E-003  4.97770212E-001
Al  6.23278083E-001  1.25143646E-001  4.99981634E-001
Al  6.22544117E-001  -8.06424229E-004  6.25019167E-001
Al  4.99924781E-001  1.22606066E-001  6.25121375E-001
Al  4.98786783E-001  -7.82757482E-004  7.50290444E-001
Al  6.25018272E-001  1.25297623E-001  7.50063595E-001
Al  6.22683966E-001  -1.07314217E-003  8.75008425E-001
Al  5.00258933E-001  1.24937768E-001  8.74897848E-001
Al  4.98274681E-001  2.49702595E-001  2.70684987E-004
Al  6.23973684E-001  3.73435833E-001  9.66063401E-004
Al  6.24809657E-001  2.48114034E-001  1.24980412E-001
Al  4.99981451E-001  3.74045237E-001  1.27386156E-001
Al  4.97529137E-001  2.47809363E-001  2.50144165E-001
Al  6.25210458E-001  3.74556059E-001  2.49978708E-001
Al  6.26264384E-001  2.49991173E-001  3.73544413E-001
Al  5.00019350E-001  3.76903357E-001  3.74601599E-001
Al  4.99977904E-001  2.51258478E-001  4.97603887E-001
Al  6.24313763E-001  3.74944114E-001  5.00061569E-001
Al  6.23909142E-001  2.49991332E-001  6.22931777E-001
Al  4.99251660E-001  3.74630122E-001  6.26416293E-001
Al  4.99126893E-001  2.52469970E-001  7.50214409E-001
Al  6.24963711E-001  3.75112488E-001  7.50710409E-001
Al  6.24349903E-001  2.48391676E-001  8.75102765E-001
Al  5.02417052E-001  3.76183726E-001  8.75008834E-001
Al  5.00336118E-001  5.00027020E-001  -2.59046090E-005
Al  6.26454369E-001  6.27123881E-001  -4.56562539E-005
Al  6.25018911E-001  5.00417171E-001  1.24911484E-001
Al  5.00026756E-001  6.22504066E-001  1.26465525E-001
Al  4.99991630E-001  4.99436058E-001  2.49944136E-001
Al  6.23616481E-001  6.27461005E-001  2.52363605E-001
Al  6.26996929E-001  4.99944773E-001  3.75211324E-001
Al  4.99255938E-001  6.26148446E-001  3.74888736E-001
Al  5.00009312E-001  4.98967230E-001  4.98377980E-001
Al  6.25066214E-001  6.25527221E-001  4.99522241E-001
Al  6.22530813E-001  4.99191896E-001  6.22579218E-001
Al  4.99981005E-001  6.24919862E-001  6.25422479E-001
Al  5.02499686E-001  4.98585372E-001  7.52429788E-001
Al  6.25008607E-001  6.24527208E-001  7.50173433E-001
Al  6.24216628E-001  5.02262336E-001  8.75839528E-001
Al  4.99376959E-001  6.27292823E-001  8.72868535E-001
Al  4.99495843E-001  7.52022106E-001  -1.63949408E-003
Al  6.25018171E-001  8.75018977E-001  2.04987612E-004
Al  6.27483037E-001  7.48790073E-001  1.25315636E-001
Al  5.02443932E-001  8.76261133E-001  1.24938350E-001
Al  4.97500041E-001  7.48973272E-001  2.48510313E-001
Al  6.25547904E-001  8.72518697E-001  2.48063133E-001
Al  6.23761049E-001  7.51865625E-001  3.76184582E-001
Al  4.98616250E-001  8.74391819E-001  3.75018144E-001
Al  4.99774023E-001  7.50898976E-001  4.98647821E-001
Al  6.27351087E-001  8.75644865E-001  5.02136022E-001
Al  6.25374144E-001  7.49596962E-001  6.25374592E-001
Al  5.01931340E-001  8.74851910E-001  6.25675863E-001
Al  5.00290514E-001  7.51161651E-001  7.50526625E-001
Al  6.24956748E-001  8.74797107E-001  7.49923581E-001
Al  6.24499849E-001  7.49569468E-001  8.72505056E-001
Al  5.00624184E-001  8.75478947E-001  8.73344442E-001
Al  7.49991610E-001  -2.14944916E-003  -1.82637582E-004
Al  8.75008370E-001  1.25025633E-001  3.04192490E-004
Al  8.74434092E-001  2.07555656E-004  1.24990393E-001
Al  7.52209930E-001  1.25204420E-001  1.25273682E-001
Al  7.47834554E-001  2.44921074E-003  2.49991611E-001
Al  8.72629894E-001  1.25845174E-001  2.49428397E-001
Al  8.74979920E-001  5.96265009E-004  3.74536041E-001
Al  7.49649234E-001  1.24477734E-001  3.72549417E-001
Al  7.50493987E-001  -8.93826849E-006  5.02082048E-001
Al  8.73068229E-001  1.24288121E-001  4.99991629E-001
Al  8.76740288E-001  -2.49537808E-003  6.22796686E-001
Al  7.49981721E-001  1.26008498E-001  6.24506958E-001
Al  7.50153646E-001  -8.49816436E-006  7.50045895E-001
Al  8.74851598E-001  1.24384400E-001  7.50458259E-001
Al  8.75022864E-001  -1.89669444E-005  8.77288814E-001
Al  7.47931589E-001  1.27274804E-001  8.76897751E-001
Al  7.51043748E-001  2.49977983E-001  -6.43072382E-004
Al  8.72978328E-001  3.74966668E-001  -1.77719941E-005
Al  8.75843133E-001  2.50179099E-001  1.25093301E-001
Al  7.52046478E-001  3.75553304E-001  1.22601238E-001
Al  7.50008483E-001  2.51900709E-001  2.52014198E-001
Al  8.74212275E-001  3.75258853E-001  2.48275873E-001
Al  8.76369253E-001  2.51115502E-001  3.76568644E-001
Al  7.50381141E-001  3.77493368E-001  3.77151329E-001
Al  7.52215931E-001  2.48775913E-001  5.00159518E-001
Al  8.75026098E-001  3.75040028E-001  5.00553966E-001
Al  8.76463824E-001  2.49248217E-001  6.25350141E-001
Al  7.49455163E-001  3.74981891E-001  6.27499504E-001
Al  7.49681612E-001  2.49006526E-001  7.51939929E-001
Al  8.74410988E-001  3.77087180E-001  7.48953139E-001
Al  8.74981207E-001  2.49991026E-001  8.73689990E-001
Al  7.50027170E-001  3.75158540E-001  8.76268535E-001
Al  7.51968643E-001  4.98707538E-001  -2.49850491E-003
Al  8.75072160E-001  6.24951248E-001  5.78655429E-004
Al  8.74266292E-001  4.99530236E-001  1.27422452E-001
Al  7.52460664E-001  6.22877453E-001  1.25227755E-001
Al  7.52496667E-001  5.01084686E-001  2.50031722E-001
Al  8.72596532E-001  6.25030346E-001  2.50021917E-001
Al  8.75176404E-001  5.00018151E-001  3.74579986E-001
Al  7.47516319E-001  6.24981194E-001  3.72842837E-001
Al  7.48111778E-001  5.02396414E-001  4.99437903E-001
Al  8.73917503E-001  6.24221254E-001  5.02186155E-001
Al  8.77468111E-001  5.00033107E-001  6.25053435E-001
Al  7.47502034E-001  6.24991281E-001  6.24067386E-001
Al  7.50201750E-001  4.99990238E-001  7.49547195E-001
Al  8.74354090E-001  6.24877955E-001  7.52491339E-001
Al  8.75745580E-001  5.00590086E-001  8.75204244E-001
Al  7.49981893E-001  6.27498633E-001  8.73178815E-001
Al  7.49851970E-001  7.49152422E-001  -2.29887987E-003
Al  8.74072213E-001  8.76971379E-001  -1.44268057E-003
Al  8.74346108E-001  7.50143302E-001  1.26305238E-001
Al  7.50067346E-001  8.74972750E-001  1.25222600E-001
Al  7.49052114E-001  7.52199911E-001  2.49661975E-001
Al  8.73113943E-001  8.75360673E-001  2.49946676E-001
Al  8.75043368E-001  7.47774444E-001  3.75920985E-001
Al  7.50805259E-001  8.74357213E-001  3.74944372E-001
Al  7.49958514E-001  7.50331512E-001  5.00046668E-001
Al  8.73936293E-001  8.75056220E-001  5.02057813E-001
Al  8.74859979E-001  7.49278212E-001  6.24199963E-001
Al  7.49971866E-001  8.75068148E-001  6.23666258E-001
Al  7.51745392E-001  7.49766786E-001  7.49128806E-001
Al  8.77265675E-001  8.75226756E-001  7.52401819E-001
Al  8.75018393E-001  7.49961314E-001  8.72609500E-001
Al  7.48284299E-001  8.74970374E-001  8.74125511E-001
K_POINTS automatic
2 2 2 1 1 1
