&CONTROL
restart_mode = 'from_scratch',
calculation = 'scf',
outdir = '/gpfs/bb/bxp912/scratch',
pseudo_dir = '/gpfs/bb/bxp912/pseudopotentials',
prefix = '2.48000000E-001',
etot_conv_thr = 1.00000000E-007,
forc_conv_thr = 1.00000000E-007,
nstep = 200,
tprnfor = .true.,
tstress = .true.,
disk_io = 'low',
/
&SYSTEM
ibrav = 14,
celldm(1) = 3.05001797E+001,
celldm(2) = 1.00000000E+000,
celldm(3) = 1.00000000E+000,
celldm(4) = 0.00000000E+000,
celldm(5) = 0.00000000E+000,
celldm(6) = 0.00000000E+000,
nat = 256,
ntyp = 1,
ecutwfc = 35,
ecutrho = 208,
occupations = 'smearing',
smearing = 'mv',
degauss = 5.00000007E-002,
/
&ELECTRONS
diagonalization = 'david',
mixing_mode = plain,
mixing_beta = 6.99999988E-001,
conv_thr = 1.00000000E-007,
/
&IONS
ion_dynamics = 'bfgs',
/
&CELL
cell_dynamics = 'bfgs',
press = 0.00000000E+000,
cell_factor = 2.00000000E+000,
/
ATOMIC_SPECIES
Al  2.69815390E+001  Al.pbe-n-kjpaw_psl.0.1.UPF
ATOMIC_POSITIONS crystal
Al  2.41074393E-003  4.59564198E-004  2.03362119E-003
Al  1.25041351E-001  1.25009574E-001  2.41493161E-004
Al  1.23204129E-001  3.06991552E-004  1.24865967E-001
Al  2.23353054E-003  1.24937323E-001  1.25162896E-001
Al  -6.53914622E-005  1.09673526E-003  2.50145691E-001
Al  1.25243247E-001  1.25019921E-001  2.50320554E-001
Al  1.24891076E-001  7.88110455E-005  3.72505531E-001
Al  -2.04322826E-004  1.24978600E-001  3.73544515E-001
Al  2.19218870E-003  1.97213129E-005  4.98924681E-001
Al  1.25609583E-001  1.22504962E-001  5.02419346E-001
Al  1.25234028E-001  -1.12491810E-003  6.24196020E-001
Al  3.17881404E-005  1.25545227E-001  6.23823473E-001
Al  -1.81488982E-005  3.47648621E-004  7.51137656E-001
Al  1.24911968E-001  1.23178417E-001  7.50259070E-001
Al  1.25066717E-001  -1.57680472E-003  8.75028743E-001
Al  4.83606914E-005  1.23808749E-001  8.77499546E-001
Al  2.33489328E-005  2.47793499E-001  -2.67592161E-005
Al  1.25134326E-001  3.76095496E-001  2.11794737E-003
Al  1.25018277E-001  2.50173276E-001  1.24088530E-001
Al  -7.22023073E-004  3.75018151E-001  1.25646148E-001
Al  3.34277238E-004  2.51688318E-001  2.49810018E-001
Al  1.25536110E-001  3.77474931E-001  2.48640408E-001
Al  1.27252000E-001  2.51020274E-001  3.75032633E-001
Al  6.71112682E-004  3.75070337E-001  3.75172553E-001
Al  -1.58163990E-003  2.47833370E-001  5.00043335E-001
Al  1.25019320E-001  3.77342114E-001  5.02448610E-001
Al  1.24727010E-001  2.48009212E-001  6.23986749E-001
Al  -1.87266186E-003  3.75106520E-001  6.24949731E-001
Al  1.60468820E-003  2.52444039E-001  7.50580499E-001
Al  1.24235678E-001  3.72513484E-001  7.49919668E-001
Al  1.23678964E-001  2.49973953E-001  8.77388721E-001
Al  -6.15195515E-004  3.75170391E-001  8.73225887E-001
Al  6.93357320E-005  5.00008895E-001  -2.38431407E-003
Al  1.25018474E-001  6.25266074E-001  2.10094231E-005
Al  1.24379631E-001  5.01649104E-001  1.22749280E-001
Al  -1.83926270E-003  6.24990649E-001  1.24901679E-001
Al  2.47574914E-003  5.00156418E-001  2.51974842E-001
Al  1.25414915E-001  6.23588468E-001  2.50289317E-001
Al  1.25028273E-001  5.00019689E-001  3.72526272E-001
Al  -7.95968758E-004  6.25042141E-001  3.77320007E-001
Al  4.09590363E-005  5.02382907E-001  4.99414683E-001
Al  1.27380615E-001  6.27298391E-001  4.97948270E-001
Al  1.22974932E-001  4.99545439E-001  6.23543123E-001
Al  -1.71744388E-003  6.27298766E-001  6.24309404E-001
Al  2.49917528E-003  4.99967647E-001  7.49915860E-001
Al  1.25051443E-001  6.26644451E-001  7.49980871E-001
Al  1.26088047E-001  4.99161293E-001  8.75020295E-001
Al  4.86975430E-005  6.24082532E-001  8.76792265E-001
Al  -3.37912094E-004  7.52023625E-001  1.81161828E-005
Al  1.22871110E-001  8.74982920E-001  1.54978042E-003
Al  1.22674910E-001  7.49896082E-001  1.25823519E-001
Al  8.37752335E-006  8.72860272E-001  1.22766148E-001
Al  -1.83877077E-005  7.50008373E-001  2.50239106E-001
Al  1.26508196E-001  8.75128576E-001  2.48227162E-001
Al  1.27222383E-001  7.50009560E-001  3.72509913E-001
Al  1.60884948E-003  8.75195945E-001  3.75018681E-001
Al  -8.65341818E-006  7.48359651E-001  5.00020397E-001
Al  1.24632844E-001  8.75008564E-001  4.97892150E-001
Al  1.23387471E-001  7.50366545E-001  6.22589044E-001
Al  -6.81696869E-004  8.74959038E-001  6.23063940E-001
Al  -2.22961591E-003  7.50018251E-001  7.49806157E-001
Al  1.27492334E-001  8.75491286E-001  7.47793228E-001
Al  1.26533341E-001  7.48796998E-001  8.74821652E-001
Al  7.49061859E-004  8.73961020E-001  8.75188870E-001
Al  2.49982186E-001  -1.60791698E-003  -2.77974443E-004
Al  3.75103593E-001  1.26591299E-001  -1.58691987E-003
Al  3.76665710E-001  -2.09137227E-005  1.27344096E-001
Al  2.50580032E-001  1.22543722E-001  1.24778740E-001
Al  2.50008402E-001  2.07082770E-003  2.49158705E-001
Al  3.77060405E-001  1.26641625E-001  2.50229312E-001
Al  3.75051897E-001  1.55427459E-004  3.74413991E-001
Al  2.49577139E-001  1.25090770E-001  3.75019991E-001
Al  2.48060388E-001  2.04091911E-004  5.01641421E-001
Al  3.75181067E-001  1.25331774E-001  4.99991187E-001
Al  3.75637379E-001  -1.58599076E-003  6.26326986E-001
Al  2.50088083E-001  1.24770868E-001  6.27000618E-001
Al  2.49258224E-001  8.50234491E-006  7.50178075E-001
Al  3.73304066E-001  1.25008834E-001  7.49872266E-001
Al  3.75229397E-001  1.02644843E-004  8.76928373E-001
Al  2.50300570E-001  1.26835818E-001  8.74399999E-001
Al  2.48624889E-001  2.49956941E-001  -1.28278031E-003
Al  3.73854131E-001  3.76443093E-001  -6.47318946E-004
Al  3.73689772E-001  2.52447098E-001  1.24093820E-001
Al  2.52262098E-001  3.73376308E-001  1.24661461E-001
Al  2.48089998E-001  2.49991214E-001  2.48733585E-001
Al  3.75346427E-001  3.74931946E-001  2.48143449E-001
Al  3.74924186E-001  2.49636358E-001  3.74925774E-001
Al  2.50836471E-001  3.74722710E-001  3.74178449E-001
Al  2.48155441E-001  2.49991330E-001  5.01113200E-001
Al  3.74273532E-001  3.74033277E-001  5.01789750E-001
Al  3.75436500E-001  2.49320124E-001  6.26825282E-001
Al  2.47529297E-001  3.75008608E-001  6.25489331E-001
Al  2.50341213E-001  2.49954688E-001  7.50625228E-001
Al  3.73755149E-001  3.75218962E-001  7.47552107E-001
Al  3.77126520E-001  2.52384562E-001  8.75070071E-001
Al  2.49207220E-001  3.75183932E-001  8.75354597E-001
Al  2.50017403E-001  4.99472631E-001  2.00760727E-004
Al  3.75099031E-001  6.24198118E-001  1.81152813E-005
Al  3.72539791E-001  4.99610165E-001  1.26791648E-001
Al  2.48893380E-001  6.25026996E-001  1.24924958E-001
Al  2.51023130E-001  4.99765831E-001  2.51093659E-001
Al  3.72887201E-001  6.22710032E-001  2.51135729E-001
Al  3.75037957E-001  4.97553398E-001  3.76751279E-001
Al  2.50048193E-001  6.24842035E-001  3.75008389E-001
Al  2.50225215E-001  5.00200018E-001  5.01488406E-001
Al  3.74641260E-001  6.24219973E-001  5.01769091E-001
Al  3.72503844E-001  4.99800813E-001  6.22924071E-001
Al  2.49158477E-001  6.26139861E-001  6.25018281E-001
Al  2.47979585E-001  5.00494410E-001  7.47508363E-001
Al  3.73659303E-001  6.27044434E-001  7.50087137E-001
Al  3.72518886E-001  5.00165937E-001  8.74163803E-001
Al  2.50419921E-001  6.24948509E-001  8.74130075E-001
Al  2.50138397E-001  7.52120513E-001  5.24123570E-004
Al  3.73952435E-001  8.73880913E-001  -2.12370349E-003
Al  3.74624234E-001  7.51051640E-001  1.26321120E-001
Al  2.49867001E-001  8.74449891E-001  1.23476898E-001
Al  2.49418058E-001  7.50009003E-001  2.49981328E-001
Al  3.75125011E-001  8.77237828E-001  2.52132255E-001
Al  3.74980571E-001  7.48544084E-001  3.75032726E-001
Al  2.48058050E-001  8.77269720E-001  3.75646238E-001
Al  2.49267782E-001  7.48755705E-001  5.00070672E-001
Al  3.73331349E-001  8.75036870E-001  5.00638603E-001
Al  3.76502958E-001  7.47645711E-001  6.22537560E-001
Al  2.47923471E-001  8.76894418E-001  6.27109661E-001
Al  2.47628806E-001  7.49927442E-001  7.50506214E-001
Al  3.72628534E-001  8.72939253E-001  7.52411649E-001
Al  3.75083500E-001  7.49759742E-001  8.74979903E-001
Al  2.49223131E-001  8.74620282E-001  8.76804026E-001
Al  4.98629243E-001  1.45729406E-003  -2.41557182E-003
Al  6.25018108E-001  1.24174462E-001  8.70563839E-006
Al  6.25105494E-001  -1.77046766E-004  1.27465491E-001
Al  4.99517966E-001  1.25929872E-001  1.27381537E-001
Al  4.98881910E-001  -1.46321179E-004  2.49465307E-001
Al  6.26208297E-001  1.25613818E-001  2.51199067E-001
Al  6.27199870E-001  2.04894033E-004  3.74162272E-001
Al  4.97836874E-001  1.24964947E-001  3.74879634E-001
Al  4.98975242E-001  7.58675855E-004  4.99977088E-001
Al  6.24923718E-001  1.24961626E-001  5.01567242E-001
Al  6.23359542E-001  1.17627831E-004  6.24978119E-001
Al  4.99981371E-001  1.25927660E-001  6.24802378E-001
Al  4.99828091E-001  -2.13607158E-003  7.50071691E-001
Al  6.25682499E-001  1.23824894E-001  7.52260925E-001
Al  6.24981654E-001  1.32563604E-003  8.76769480E-001
Al  4.97855089E-001  1.24980482E-001  8.72972614E-001
Al  4.98650288E-001  2.50575363E-001  1.04538124E-003
Al  6.25099831E-001  3.74641099E-001  4.27703233E-005
Al  6.25460224E-001  2.51154357E-001  1.25020731E-001
Al  4.99729056E-001  3.75009249E-001  1.25743779E-001
Al  5.02488811E-001  2.49554778E-001  2.49838348E-001
Al  6.22595286E-001  3.75018499E-001  2.51743109E-001
Al  6.26827939E-001  2.50042013E-001  3.72878374E-001
Al  5.00073917E-001  3.74769123E-001  3.73567111E-001
Al  5.00315596E-001  2.50817480E-001  4.99991453E-001
Al  6.25202734E-001  3.75907577E-001  5.01544469E-001
Al  6.22535355E-001  2.50043184E-001  6.24741102E-001
Al  4.98172420E-001  3.75260748E-001  6.22521009E-001
Al  5.01287526E-001  2.52244331E-001  7.49691910E-001
Al  6.24160137E-001  3.74456616E-001  7.49597308E-001
Al  6.25300143E-001  2.49789259E-001  8.73056250E-001
Al  4.97518583E-001  3.75028901E-001  8.77273858E-001
Al  5.00166582E-001  4.99864094E-001  -6.18779315E-004
Al  6.24842266E-001  6.23366843E-001  7.93946913E-004
Al  6.25287091E-001  5.01911280E-001  1.27394438E-001
Al  5.00530837E-001  6.26313259E-001  1.25627667E-001
Al  5.02498219E-001  5.01266509E-001  2.49949031E-001
Al  6.26228686E-001  6.25035625E-001  2.49740731E-001
Al  6.24935928E-001  5.01144714E-001  3.76289602E-001
Al  5.00721838E-001  6.22589985E-001  3.75023340E-001
Al  5.00557737E-001  5.02473661E-001  4.98630619E-001
Al  6.24257212E-001  6.23975957E-001  5.00244716E-001
Al  6.25544966E-001  5.02161724E-001  6.26894322E-001
Al  5.01423940E-001  6.25037984E-001  6.26150288E-001
Al  4.99991624E-001  4.99809969E-001  7.51543633E-001
Al  6.24969964E-001  6.22524004E-001  7.51166298E-001
Al  6.27409391E-001  4.99825500E-001  8.75388600E-001
Al  4.98612384E-001  6.27312900E-001  8.72512139E-001
Al  5.00055376E-001  7.48211316E-001  2.18515841E-003
Al  6.24778813E-001  8.74921931E-001  -5.26843569E-004
Al  6.24288760E-001  7.50090415E-001  1.22512560E-001
Al  4.97582528E-001  8.74965062E-001  1.25083101E-001
Al  5.00278167E-001  7.48187535E-001  2.48260543E-001
Al  6.24990775E-001  8.77497986E-001  2.50020044E-001
Al  6.25726039E-001  7.47675181E-001  3.74291483E-001
Al  5.00323341E-001  8.77350046E-001  3.75038949E-001
Al  5.00306150E-001  7.50091413E-001  4.99202195E-001
Al  6.25008947E-001  8.75277628E-001  5.00086538E-001
Al  6.22735699E-001  7.51843334E-001  6.24991439E-001
Al  5.02496542E-001  8.72759089E-001  6.24990342E-001
Al  5.02379700E-001  7.49881119E-001  7.49980253E-001
Al  6.22651067E-001  8.75379232E-001  7.52202138E-001
Al  6.25790042E-001  7.50055639E-001  8.74981838E-001
Al  4.99871623E-001  8.72701327E-001  8.75337222E-001
Al  7.50065800E-001  -1.06493541E-004  4.54325518E-004
Al  8.74591876E-001  1.27492118E-001  -9.78391658E-004
Al  8.74981667E-001  -1.41213051E-004  1.24054864E-001
Al  7.49856598E-001  1.25586480E-001  1.22540010E-001
Al  7.50088588E-001  2.31623688E-003  2.51937837E-001
Al  8.75791641E-001  1.25253384E-001  2.49159917E-001
Al  8.75060589E-001  -1.52150453E-003  3.74942796E-001
Al  7.48676706E-001  1.26204301E-001  3.74990976E-001
Al  7.48123705E-001  1.38715850E-004  5.00262739E-001
Al  8.75020111E-001  1.24540121E-001  4.99755176E-001
Al  8.74972869E-001  -2.37910631E-003  6.24242398E-001
Al  7.49958138E-001  1.24277478E-001  6.22864031E-001
Al  7.50018599E-001  1.69643776E-004  7.48485018E-001
Al  8.75029645E-001  1.22666542E-001  7.49976830E-001
Al  8.77301893E-001  9.75295331E-004  8.76011490E-001
Al  7.50374975E-001  1.25188914E-001  8.75336033E-001
Al  7.52459730E-001  2.49980317E-001  -4.08459793E-004
Al  8.75028952E-001  3.75142078E-001  -2.49922551E-003
Al  8.75907148E-001  2.51053842E-001  1.24513558E-001
Al  7.47514554E-001  3.75009818E-001  1.25097220E-001
Al  7.52380911E-001  2.49850992E-001  2.52260526E-001
Al  8.74991288E-001  3.74646612E-001  2.50032157E-001
Al  8.76727981E-001  2.49991327E-001  3.74990920E-001
Al  7.52492568E-001  3.75483334E-001  3.75428197E-001
Al  7.50044238E-001  2.50963247E-001  4.99115280E-001
Al  8.74957873E-001  3.77415066E-001  5.00243840E-001
Al  8.73573604E-001  2.47975316E-001  6.26393246E-001
Al  7.50020168E-001  3.74981891E-001  6.24991360E-001
Al  7.52011624E-001  2.52080268E-001  7.49740210E-001
Al  8.73976219E-001  3.74925933E-001  7.50506563E-001
Al  8.77483544E-001  2.50176074E-001  8.77486117E-001
Al  7.51536235E-001  3.73827202E-001  8.77367643E-001
Al  7.51015442E-001  4.98640393E-001  1.31853892E-003
Al  8.72555215E-001  6.23795477E-001  1.34295266E-003
Al  8.77457595E-001  4.99723577E-001  1.23169832E-001
Al  7.50114437E-001  6.24615659E-001  1.25008672E-001
Al  7.49877717E-001  4.99494383E-001  2.52499733E-001
Al  8.75284057E-001  6.26939724E-001  2.47636627E-001
Al  8.75333736E-001  4.99819474E-001  3.77455246E-001
Al  7.47990550E-001  6.22762980E-001  3.75018722E-001
Al  7.49801578E-001  4.98605972E-001  5.01354715E-001
Al  8.74982228E-001  6.22924138E-001  4.97707718E-001
Al  8.74863763E-001  5.00020486E-001  6.25008956E-001
Al  7.51615087E-001  6.24363408E-001  6.25377408E-001
Al  7.47727197E-001  5.00206376E-001  7.47634263E-001
Al  8.74833239E-001  6.22633716E-001  7.48634621E-001
Al  8.74895823E-001  5.01822250E-001  8.74550848E-001
Al  7.48067715E-001  6.24455665E-001  8.72890327E-001
Al  7.52407250E-001  7.49982262E-001  -2.02593819E-004
Al  8.72652290E-001  8.74712107E-001  -1.88065641E-003
Al  8.75073629E-001  7.52416902E-001  1.22557732E-001
Al  7.47796937E-001  8.72593251E-001  1.25737404E-001
Al  7.48365640E-001  7.51949091E-001  2.47713690E-001
Al  8.77187695E-001  8.74957760E-001  2.51659476E-001
Al  8.74991495E-001  7.49979963E-001  3.73829247E-001
Al  7.47513645E-001  8.73353983E-001  3.74813145E-001
Al  7.50053513E-001  7.50008469E-001  4.98846595E-001
Al  8.74893661E-001  8.74940857E-001  5.00037295E-001
Al  8.74972352E-001  7.48041837E-001  6.26716414E-001
Al  7.50592433E-001  8.76326058E-001  6.23727776E-001
Al  7.49943670E-001  7.50333200E-001  7.50401292E-001
Al  8.77048163E-001  8.73869300E-001  7.51116434E-001
Al  8.73849865E-001  7.49979894E-001  8.72650583E-001
Al  7.48079752E-001  8.72758105E-001  8.72850697E-001
K_POINTS automatic
2 2 2 1 1 1
