&CONTROL
restart_mode = 'from_scratch',
calculation = 'scf',
outdir = '/gpfs/bb/bxp912/scratch',
pseudo_dir = '/gpfs/bb/bxp912/pseudopotentials',
prefix = '2.48000000E-001',
etot_conv_thr = 1.00000000E-007,
forc_conv_thr = 1.00000000E-007,
nstep = 200,
tprnfor = .true.,
tstress = .true.,
disk_io = 'low',
/
&SYSTEM
ibrav = 14,
celldm(1) = 3.05001797E+001,
celldm(2) = 1.00000000E+000,
celldm(3) = 1.00000000E+000,
celldm(4) = 0.00000000E+000,
celldm(5) = 0.00000000E+000,
celldm(6) = 0.00000000E+000,
nat = 256,
ntyp = 1,
ecutwfc = 35,
ecutrho = 208,
occupations = 'smearing',
smearing = 'mv',
degauss = 5.00000007E-002,
/
&ELECTRONS
diagonalization = 'david',
mixing_mode = plain,
mixing_beta = 6.99999988E-001,
conv_thr = 1.00000000E-007,
/
&IONS
ion_dynamics = 'bfgs',
/
&CELL
cell_dynamics = 'bfgs',
press = 0.00000000E+000,
cell_factor = 2.00000000E+000,
/
ATOMIC_SPECIES
Al  2.69815390E+001  Al.pbe-n-kjpaw_psl.0.1.UPF
ATOMIC_POSITIONS crystal
Al  1.77741342E-003  1.79535333E-003  1.68747910E-003
Al  1.24935590E-001  1.25874980E-001  -2.94584111E-004
Al  1.24669197E-001  1.31846517E-003  1.25201290E-001
Al  1.12279164E-004  1.25008597E-001  1.24968159E-001
Al  -1.52087979E-003  -1.09226582E-003  2.47576344E-001
Al  1.22528132E-001  1.27499153E-001  2.50232905E-001
Al  1.24991229E-001  1.09160587E-003  3.74895794E-001
Al  -2.48740416E-003  1.25008720E-001  3.76257489E-001
Al  9.02134004E-005  -3.42811839E-005  4.98241433E-001
Al  1.25131951E-001  1.25390038E-001  5.00017615E-001
Al  1.25346486E-001  8.69368522E-004  6.23386111E-001
Al  3.46659753E-004  1.25008768E-001  6.22809311E-001
Al  7.14823832E-004  -1.33957253E-003  7.48251557E-001
Al  1.24784544E-001  1.24196245E-001  7.49981393E-001
Al  1.25854652E-001  2.46323338E-003  8.77321694E-001
Al  -2.26947699E-003  1.24415414E-001  8.74907639E-001
Al  4.13467702E-004  2.49327585E-001  1.53580339E-003
Al  1.24537217E-001  3.74981991E-001  -2.17590804E-003
Al  1.25208951E-001  2.52310777E-001  1.27125285E-001
Al  -4.37908661E-004  3.74906765E-001  1.26155415E-001
Al  -1.99142432E-005  2.50018199E-001  2.49479720E-001
Al  1.25604258E-001  3.75911162E-001  2.50008642E-001
Al  1.24981565E-001  2.49991441E-001  3.77410716E-001
Al  2.81388941E-004  3.74957332E-001  3.77389508E-001
Al  -2.47933296E-003  2.47605750E-001  4.98540248E-001
Al  1.24565572E-001  3.73938093E-001  5.00065906E-001
Al  1.24957026E-001  2.49813758E-001  6.27463361E-001
Al  1.78977659E-005  3.75736453E-001  6.25155299E-001
Al  2.15431772E-003  2.50050111E-001  7.49991322E-001
Al  1.24662376E-001  3.74897790E-001  7.48371443E-001
Al  1.24860704E-001  2.52239540E-001  8.74952808E-001
Al  -2.79411010E-004  3.74798589E-001  8.76609241E-001
Al  5.81155032E-004  4.99991012E-001  -3.95567388E-005
Al  1.24771212E-001  6.25862107E-001  1.36780025E-003
Al  1.24936466E-001  5.02492166E-001  1.24850610E-001
Al  -2.43240592E-003  6.22501841E-001  1.25373226E-001
Al  4.38845558E-004  5.00018108E-001  2.52440429E-001
Al  1.24981594E-001  6.25034457E-001  2.49965727E-001
Al  1.25133390E-001  4.99397252E-001  3.73956054E-001
Al  -9.72690597E-005  6.22500982E-001  3.75097768E-001
Al  -1.70279634E-003  5.00034442E-001  4.99314515E-001
Al  1.25588530E-001  6.22513008E-001  4.99841619E-001
Al  1.27491420E-001  4.99970656E-001  6.22678182E-001
Al  -2.79711050E-004  6.24980965E-001  6.25346616E-001
Al  1.90944469E-004  4.98333259E-001  7.49920727E-001
Al  1.24092644E-001  6.25449143E-001  7.49839884E-001
Al  1.23556453E-001  5.00478554E-001  8.72617835E-001
Al  -1.15182434E-004  6.23809480E-001  8.75008375E-001
Al  -6.18771367E-004  7.52417663E-001  1.66269969E-004
Al  1.22739543E-001  8.77453326E-001  -1.16772359E-003
Al  1.23755087E-001  7.50018115E-001  1.22945255E-001
Al  4.51149492E-004  8.74981641E-001  1.22698511E-001
Al  7.76184235E-005  7.50046098E-001  2.51316523E-001
Al  1.24951280E-001  8.74918345E-001  2.49813436E-001
Al  1.24975255E-001  7.49085518E-001  3.76845065E-001
Al  1.24984728E-004  8.74820434E-001  3.75018215E-001
Al  -1.13688909E-003  7.49637625E-001  5.02486484E-001
Al  1.24981105E-001  8.75780548E-001  5.00845751E-001
Al  1.25236113E-001  7.50008404E-001  6.26568126E-001
Al  -7.92592857E-004  8.77354396E-001  6.25046151E-001
Al  -9.21933906E-005  7.50789990E-001  7.50141609E-001
Al  1.25852152E-001  8.74765743E-001  7.50018177E-001
Al  1.25559073E-001  7.49894589E-001  8.77327916E-001
Al  1.63690628E-003  8.76936582E-001  8.75153661E-001
Al  2.51039419E-001  1.58049628E-003  -4.15106970E-004
Al  3.75287922E-001  1.25766068E-001  -3.36670877E-005
Al  3.73416859E-001  -1.58869773E-003  1.27455973E-001
Al  2.47586039E-001  1.24620012E-001  1.22541072E-001
Al  2.48312950E-001  -1.34975113E-003  2.52387252E-001
Al  3.73155173E-001  1.25050762E-001  2.49245069E-001
Al  3.74232923E-001  -7.18562399E-004  3.74991607E-001
Al  2.49035962E-001  1.22649014E-001  3.73205502E-001
Al  2.50782153E-001  1.06841261E-004  5.01657901E-001
Al  3.75325575E-001  1.24398320E-001  4.99972983E-001
Al  3.75054083E-001  -3.66077337E-004  6.24401250E-001
Al  2.50255959E-001  1.25232923E-001  6.24689803E-001
Al  2.49561971E-001  9.73822230E-004  7.49804004E-001
Al  3.77059489E-001  1.25019559E-001  7.50396462E-001
Al  3.75027770E-001  -2.00932679E-003  8.74961024E-001
Al  2.51466652E-001  1.24341756E-001  8.72748823E-001
Al  2.49680265E-001  2.50051499E-001  -2.91342795E-004
Al  3.74896931E-001  3.74667923E-001  -1.95455483E-005
Al  3.74069768E-001  2.50275773E-001  1.24870693E-001
Al  2.49828510E-001  3.77115173E-001  1.24937874E-001
Al  2.49867765E-001  2.50157375E-001  2.50072839E-001
Al  3.76110691E-001  3.74900440E-001  2.48631102E-001
Al  3.74982653E-001  2.49737584E-001  3.77059172E-001
Al  2.51111745E-001  3.74980416E-001  3.73439463E-001
Al  2.49873773E-001  2.51742831E-001  5.00087585E-001
Al  3.75019352E-001  3.72564593E-001  5.00009025E-001
Al  3.75649771E-001  2.50042140E-001  6.26566803E-001
Al  2.49790663E-001  3.74906376E-001  6.24333917E-001
Al  2.51385265E-001  2.49051347E-001  7.49190972E-001
Al  3.75034332E-001  3.75225365E-001  7.52405683E-001
Al  3.74681829E-001  2.49274697E-001  8.74421985E-001
Al  2.48987379E-001  3.75792155E-001  8.73935221E-001
Al  2.49964334E-001  4.99082341E-001  -1.48190661E-003
Al  3.74991568E-001  6.26976500E-001  -1.86099696E-005
Al  3.76478475E-001  5.00455151E-001  1.26064725E-001
Al  2.51912746E-001  6.24726489E-001  1.24943266E-001
Al  2.50008493E-001  4.97833094E-001  2.50149298E-001
Al  3.76543832E-001  6.25128132E-001  2.50351471E-001
Al  3.75226327E-001  4.98545487E-001  3.73938236E-001
Al  2.51303869E-001  6.24982092E-001  3.77065168E-001
Al  2.48131556E-001  4.98046289E-001  5.00916865E-001
Al  3.72544035E-001  6.27066037E-001  4.99695331E-001
Al  3.74887267E-001  4.99526669E-001  6.27468628E-001
Al  2.49939641E-001  6.23790285E-001  6.25078260E-001
Al  2.50057576E-001  5.00244781E-001  7.51761249E-001
Al  3.75268974E-001  6.25230892E-001  7.49511973E-001
Al  3.77238323E-001  5.00019790E-001  8.75009105E-001
Al  2.47622567E-001  6.25088265E-001  8.75704605E-001
Al  2.52494613E-001  7.48999952E-001  1.82271634E-005
Al  3.74353139E-001  8.77498862E-001  2.25794928E-004
Al  3.75376934E-001  7.52077711E-001  1.22500082E-001
Al  2.50745536E-001  8.75853572E-001  1.24907567E-001
Al  2.50119467E-001  7.50088693E-001  2.52431997E-001
Al  3.75134760E-001  8.74898433E-001  2.50036418E-001
Al  3.77156225E-001  7.51891411E-001  3.76846796E-001
Al  2.50247133E-001  8.75469248E-001  3.75008590E-001
Al  2.50145609E-001  7.49990622E-001  5.00008496E-001
Al  3.77029922E-001  8.74968369E-001  4.99790418E-001
Al  3.74391203E-001  7.50743048E-001  6.24724797E-001
Al  2.47502518E-001  8.74950782E-001  6.27497595E-001
Al  2.48919295E-001  7.49981413E-001  7.50018151E-001
Al  3.74991626E-001  8.76889976E-001  7.51471300E-001
Al  3.75532889E-001  7.49270146E-001  8.72528049E-001
Al  2.50018592E-001  8.74981800E-001  8.74991478E-001
Al  4.99798314E-001  1.43049618E-004  4.53716072E-004
Al  6.24654213E-001  1.24740547E-001  5.67716033E-004
Al  6.26395136E-001  1.67147358E-003  1.27184797E-001
Al  4.98048997E-001  1.22849383E-001  1.22855758E-001
Al  5.00595813E-001  6.85408062E-004  2.50499130E-001
Al  6.25008814E-001  1.26488003E-001  2.50078788E-001
Al  6.24311016E-001  4.35474070E-005  3.73898461E-001
Al  4.99940086E-001  1.26039848E-001  3.74852504E-001
Al  5.01073554E-001  1.23932778E-004  4.99981857E-001
Al  6.24981724E-001  1.22673303E-001  5.00957971E-001
Al  6.24333468E-001  -5.81012275E-005  6.24123808E-001
Al  5.01350276E-001  1.25021862E-001  6.25122408E-001
Al  5.02385965E-001  1.85032989E-005  7.47585124E-001
Al  6.26156630E-001  1.22505440E-001  7.48011566E-001
Al  6.24255124E-001  -3.51713767E-005  8.74385487E-001
Al  4.99991596E-001  1.24695301E-001  8.76812839E-001
Al  4.97507441E-001  2.49107953E-001  -3.35173960E-005
Al  6.24966070E-001  3.77065501E-001  -7.43123159E-005
Al  6.25226480E-001  2.47508974E-001  1.25034348E-001
Al  4.99477179E-001  3.74766936E-001  1.22675411E-001
Al  5.00031901E-001  2.49942164E-001  2.49991409E-001
Al  6.24980786E-001  3.75073095E-001  2.49647647E-001
Al  6.25018082E-001  2.50111695E-001  3.77132125E-001
Al  5.01805782E-001  3.74979977E-001  3.72987143E-001
Al  5.01088005E-001  2.49432163E-001  4.98547855E-001
Al  6.25166743E-001  3.75018327E-001  4.99230972E-001
Al  6.25075697E-001  2.51455424E-001  6.26266662E-001
Al  4.99163093E-001  3.72545338E-001  6.27457284E-001
Al  4.99899411E-001  2.50009610E-001  7.49015365E-001
Al  6.23319801E-001  3.76309637E-001  7.50018797E-001
Al  6.26483523E-001  2.47829408E-001  8.74473378E-001
Al  4.98098628E-001  3.73360662E-001  8.77214817E-001
Al  4.99165954E-001  5.00414000E-001  -2.28587148E-003
Al  6.25723020E-001  6.27237943E-001  -4.72668835E-004
Al  6.24964151E-001  5.01114419E-001  1.24971185E-001
Al  5.01093261E-001  6.25845118E-001  1.24966637E-001
Al  5.00132552E-001  5.00143126E-001  2.50227922E-001
Al  6.25110644E-001  6.23161276E-001  2.47504731E-001
Al  6.25579009E-001  4.99052602E-001  3.72514325E-001
Al  5.00019906E-001  6.24778264E-001  3.76681423E-001
Al  5.00167577E-001  5.00108643E-001  4.99965245E-001
Al  6.25018604E-001  6.27005975E-001  5.00078713E-001
Al  6.24934987E-001  4.98094812E-001  6.24916969E-001
Al  4.99432106E-001  6.27499979E-001  6.24258503E-001
Al  5.01989376E-001  4.99990249E-001  7.51898955E-001
Al  6.25263363E-001  6.22894193E-001  7.49450471E-001
Al  6.25018065E-001  5.00791883E-001  8.73752485E-001
Al  5.00605843E-001  6.25049643E-001  8.74751379E-001
Al  4.98632122E-001  7.50219947E-001  2.47693879E-003
Al  6.25032340E-001  8.72749671E-001  1.61901311E-003
Al  6.24863756E-001  7.49652163E-001  1.25217612E-001
Al  5.00124999E-001  8.75056329E-001  1.25026056E-001
Al  5.00656266E-001  7.48330613E-001  2.50008483E-001
Al  6.24962030E-001  8.76004175E-001  2.50008600E-001
Al  6.26889090E-001  7.50195320E-001  3.75438757E-001
Al  5.02408407E-001  8.72502606E-001  3.74815003E-001
Al  4.99991617E-001  7.51501063E-001  4.99095479E-001
Al  6.25896432E-001  8.77456857E-001  5.00018544E-001
Al  6.24180960E-001  7.49613855E-001  6.24286870E-001
Al  4.99878977E-001  8.74952205E-001  6.23778221E-001
Al  4.99569022E-001  7.50104050E-001  7.49978285E-001
Al  6.25064476E-001  8.72686412E-001  7.50168205E-001
Al  6.24951766E-001  7.48568910E-001  8.75052208E-001
Al  4.98557759E-001  8.74991604E-001  8.73878791E-001
Al  7.52212204E-001  -2.42314202E-003  2.25814512E-003
Al  8.74990712E-001  1.25706699E-001  1.74552669E-003
Al  8.74557296E-001  1.13573107E-003  1.23424602E-001
Al  7.50423354E-001  1.24828522E-001  1.22542140E-001
Al  7.50443715E-001  8.71082901E-006  2.50142951E-001
Al  8.75341942E-001  1.22612870E-001  2.48500249E-001
Al  8.74820186E-001  1.46318052E-003  3.72519692E-001
Al  7.49981748E-001  1.25341702E-001  3.73190558E-001
Al  7.49713958E-001  -2.17204136E-003  5.02425350E-001
Al  8.75791315E-001  1.25606388E-001  5.00047458E-001
Al  8.77499435E-001  -1.11872481E-003  6.24981870E-001
Al  7.49224184E-001  1.24848527E-001  6.24447446E-001
Al  7.50229704E-001  -1.87064902E-003  7.50008370E-001
Al  8.75342158E-001  1.24928143E-001  7.52289920E-001
Al  8.73784522E-001  -2.25924338E-004  8.75027908E-001
Al  7.51561963E-001  1.24573057E-001  8.75924411E-001
Al  7.49782464E-001  2.49980986E-001  1.04843734E-003
Al  8.75041055E-001  3.74929338E-001  -2.43770010E-003
Al  8.73936581E-001  2.47608862E-001  1.24602338E-001
Al  7.47818173E-001  3.76294488E-001  1.24272049E-001
Al  7.52454788E-001  2.49981051E-001  2.49853557E-001
Al  8.77489513E-001  3.75009792E-001  2.50966046E-001
Al  8.75065284E-001  2.49741241E-001  3.77411163E-001
Al  7.52394327E-001  3.74796936E-001  3.75147772E-001
Al  7.50023543E-001  2.49047203E-001  4.99951006E-001
Al  8.75280460E-001  3.75019301E-001  4.99980905E-001
Al  8.75683926E-001  2.49991157E-001  6.24931193E-001
Al  7.49187879E-001  3.76742213E-001  6.27134871E-001
Al  7.50448078E-001  2.50056033E-001  7.50379723E-001
Al  8.76879155E-001  3.75340991E-001  7.49971650E-001
Al  8.74054475E-001  2.49258539E-001  8.76507060E-001
Al  7.47585735E-001  3.74909014E-001  8.72503587E-001
Al  7.48480957E-001  4.99991544E-001  -8.42605885E-006
Al  8.74981404E-001  6.26294842E-001  2.07353328E-003
Al  8.73305258E-001  5.00078553E-001  1.24957955E-001
Al  7.50047298E-001  6.26759299E-001  1.27119501E-001
Al  7.50009600E-001  5.00427827E-001  2.48595824E-001
Al  8.75993989E-001  6.24980341E-001  2.49920521E-001
Al  8.74973475E-001  5.00581863E-001  3.77334125E-001
Al  7.49980501E-001  6.24555116E-001  3.73758584E-001
Al  7.50212814E-001  4.97696950E-001  5.02085000E-001
Al  8.77231263E-001  6.24848345E-001  4.99716218E-001
Al  8.72500410E-001  5.01093684E-001  6.25008407E-001
Al  7.47634595E-001  6.25372596E-001  6.23608404E-001
Al  7.51575376E-001  4.98704784E-001  7.49787282E-001
Al  8.75093592E-001  6.25380433E-001  7.49481082E-001
Al  8.76252032E-001  4.99172515E-001  8.74823799E-001
Al  7.50008572E-001  6.27360427E-001  8.73007220E-001
Al  7.49954102E-001  7.48043239E-001  -2.97526460E-005
Al  8.74981887E-001  8.72748215E-001  1.95988429E-003
Al  8.77280963E-001  7.52499850E-001  1.26333472E-001
Al  7.50305944E-001  8.75189981E-001  1.24758385E-001
Al  7.48358803E-001  7.50019689E-001  2.52132613E-001
Al  8.72796926E-001  8.75018167E-001  2.50473386E-001
Al  8.75008890E-001  7.50359914E-001  3.74832296E-001
Al  7.50069125E-001  8.76014786E-001  3.73028343E-001
Al  7.50859682E-001  7.47693800E-001  5.02381416E-001
Al  8.74596111E-001  8.75018266E-001  5.00090071E-001
Al  8.76491039E-001  7.50071345E-001  6.25008370E-001
Al  7.49479456E-001  8.74959257E-001  6.27257812E-001
Al  7.50258770E-001  7.49981670E-001  7.50288347E-001
Al  8.75019994E-001  8.76085698E-001  7.49391953E-001
Al  8.74797275E-001  7.52457338E-001  8.75568630E-001
Al  7.49991507E-001  8.77062588E-001  8.74947251E-001
K_POINTS automatic
2 2 2 1 1 1
