&CONTROL
restart_mode = 'from_scratch',
calculation = 'scf',
outdir = '/gpfs/bb/bxp912/scratch',
pseudo_dir = '/gpfs/bb/bxp912/pseudopotentials',
prefix = '2.48000000E-001',
etot_conv_thr = 1.00000000E-007,
forc_conv_thr = 1.00000000E-007,
nstep = 200,
tprnfor = .true.,
tstress = .true.,
disk_io = 'low',
/
&SYSTEM
ibrav = 14,
celldm(1) = 3.05001797E+001,
celldm(2) = 1.00000000E+000,
celldm(3) = 1.00000000E+000,
celldm(4) = 0.00000000E+000,
celldm(5) = 0.00000000E+000,
celldm(6) = 0.00000000E+000,
nat = 256,
ntyp = 1,
ecutwfc = 35,
ecutrho = 208,
occupations = 'smearing',
smearing = 'mv',
degauss = 5.00000007E-002,
/
&ELECTRONS
diagonalization = 'david',
mixing_mode = plain,
mixing_beta = 6.99999988E-001,
conv_thr = 1.00000000E-007,
/
&IONS
ion_dynamics = 'bfgs',
/
&CELL
cell_dynamics = 'bfgs',
press = 0.00000000E+000,
cell_factor = 2.00000000E+000,
/
ATOMIC_SPECIES
Al  2.69815390E+001  Al.pbe-n-kjpaw_psl.0.1.UPF
ATOMIC_POSITIONS crystal
Al  9.30696481E-006  2.60004031E-005  -1.07895096E-003
Al  1.27499996E-001  1.24981460E-001  4.45673925E-004
Al  1.22509264E-001  3.29543960E-004  1.23802797E-001
Al  2.33763887E-003  1.23448445E-001  1.23914021E-001
Al  -2.20601697E-003  1.99651731E-003  2.50387484E-001
Al  1.22815957E-001  1.24862712E-001  2.48058398E-001
Al  1.22553898E-001  4.77054790E-004  3.74931836E-001
Al  -1.53462401E-003  1.26982926E-001  3.72887818E-001
Al  -2.12956252E-003  -1.79164284E-004  4.99143352E-001
Al  1.22524452E-001  1.25206931E-001  5.00129660E-001
Al  1.24991310E-001  -1.33389360E-003  6.24917905E-001
Al  4.92752900E-005  1.24037917E-001  6.24916076E-001
Al  6.25077340E-004  -9.77075357E-005  7.51220502E-001
Al  1.27497270E-001  1.25420789E-001  7.51958479E-001
Al  1.23845867E-001  -2.32664339E-003  8.75423026E-001
Al  2.43344976E-004  1.25408437E-001  8.73452663E-001
Al  1.00222780E-004  2.50314453E-001  -6.37171550E-004
Al  1.25094095E-001  3.74981020E-001  2.49999452E-003
Al  1.27451493E-001  2.49542806E-001  1.26645776E-001
Al  2.15303134E-004  3.74677214E-001  1.22987699E-001
Al  -5.01436467E-005  2.49885106E-001  2.48815093E-001
Al  1.24981730E-001  3.75009388E-001  2.48717494E-001
Al  1.24151327E-001  2.50008374E-001  3.76089082E-001
Al  -2.48370095E-003  3.76360599E-001  3.77249825E-001
Al  7.32456372E-004  2.50026306E-001  5.00018517E-001
Al  1.23206536E-001  3.75781266E-001  5.00308923E-001
Al  1.24778223E-001  2.50019881E-001  6.25659260E-001
Al  -2.03376943E-003  3.73238648E-001  6.25789224E-001
Al  3.89294532E-005  2.49573373E-001  7.49187356E-001
Al  1.27473389E-001  3.77477413E-001  7.50703968E-001
Al  1.26161489E-001  2.48464047E-001  8.77081222E-001
Al  4.79686449E-004  3.72652247E-001  8.73850041E-001
Al  1.62089820E-004  4.99980766E-001  -1.32972933E-003
Al  1.24991151E-001  6.26222417E-001  1.12104095E-003
Al  1.25018121E-001  4.97624128E-001  1.25457155E-001
Al  -1.83606680E-003  6.23217558E-001  1.22689258E-001
Al  -2.13459545E-003  4.99991464E-001  2.47508317E-001
Al  1.25279677E-001  6.27399237E-001  2.51936904E-001
Al  1.24518356E-001  4.98813466E-001  3.74991616E-001
Al  -1.85286262E-003  6.27487104E-001  3.74413389E-001
Al  -6.17459262E-004  5.00048828E-001  5.00008606E-001
Al  1.25087915E-001  6.23891199E-001  4.99730288E-001
Al  1.22520367E-001  5.01043066E-001  6.24991084E-001
Al  -1.42157839E-003  6.25008791E-001  6.23797001E-001
Al  -4.16627006E-005  5.01795530E-001  7.50211134E-001
Al  1.22599616E-001  6.27444377E-001  7.49339043E-001
Al  1.24977858E-001  4.99536486E-001  8.76111718E-001
Al  -2.33050155E-003  6.27489115E-001  8.76953041E-001
Al  2.05567985E-004  7.49016722E-001  1.36010758E-003
Al  1.25357459E-001  8.74973622E-001  -1.75655967E-003
Al  1.22507898E-001  7.50125651E-001  1.26552605E-001
Al  -3.45097869E-004  8.74961439E-001  1.22898043E-001
Al  -8.41653807E-006  7.48538088E-001  2.49728896E-001
Al  1.24981063E-001  8.75054848E-001  2.51083893E-001
Al  1.22622585E-001  7.50026933E-001  3.72589099E-001
Al  3.17379067E-005  8.75254273E-001  3.75033982E-001
Al  -1.45127302E-003  7.49013174E-001  5.00073968E-001
Al  1.27217635E-001  8.74531351E-001  5.01845669E-001
Al  1.25136697E-001  7.50008794E-001  6.27283510E-001
Al  2.43396277E-003  8.75381441E-001  6.22511577E-001
Al  -1.89558673E-003  7.49955562E-001  7.48507763E-001
Al  1.24947137E-001  8.77112029E-001  7.48404004E-001
Al  1.25894993E-001  7.51038279E-001  8.76838543E-001
Al  2.25792942E-005  8.75742653E-001  8.75888221E-001
Al  2.51954727E-001  2.60726189E-004  -1.16221108E-003
Al  3.75018351E-001  1.24981517E-001  -2.23225209E-003
Al  3.74906787E-001  -2.49999598E-003  1.26595122E-001
Al  2.50276263E-001  1.24972451E-001  1.22918852E-001
Al  2.48567931E-001  -1.88230546E-005  2.47509680E-001
Al  3.73088387E-001  1.22500630E-001  2.47515894E-001
Al  3.73759414E-001  -3.07493158E-004  3.76315483E-001
Al  2.50876243E-001  1.22528895E-001  3.74991408E-001
Al  2.52459907E-001  4.03883111E-005  4.99182574E-001
Al  3.75018410E-001  1.24742038E-001  5.01147626E-001
Al  3.75339365E-001  -2.22725856E-003  6.25039772E-001
Al  2.50926751E-001  1.22594525E-001  6.25110063E-001
Al  2.47645513E-001  1.28536809E-004  7.50033087E-001
Al  3.75087598E-001  1.25045248E-001  7.48634149E-001
Al  3.74370448E-001  -1.01465714E-003  8.72554552E-001
Al  2.50661336E-001  1.22886043E-001  8.75358105E-001
Al  2.50723714E-001  2.50018928E-001  5.84055298E-004
Al  3.72645407E-001  3.75881810E-001  1.89744043E-003
Al  3.75008946E-001  2.52497175E-001  1.27498635E-001
Al  2.49490016E-001  3.75045152E-001  1.22900364E-001
Al  2.49991541E-001  2.49219331E-001  2.48326835E-001
Al  3.75722950E-001  3.77498988E-001  2.52498606E-001
Al  3.75703499E-001  2.50301581E-001  3.76853123E-001
Al  2.47990883E-001  3.74991206E-001  3.77497969E-001
Al  2.50514432E-001  2.49975672E-001  5.01620390E-001
Al  3.75906264E-001  3.74493721E-001  4.99452206E-001
Al  3.75967935E-001  2.52198838E-001  6.25079128E-001
Al  2.52473825E-001  3.75008473E-001  6.25094307E-001
Al  2.51758165E-001  2.48612271E-001  7.50039911E-001
Al  3.77380270E-001  3.74022252E-001  7.50115475E-001
Al  3.73081462E-001  2.47929857E-001  8.75018885E-001
Al  2.50199527E-001  3.74991521E-001  8.75963935E-001
Al  2.52177079E-001  4.99806843E-001  -2.14085048E-003
Al  3.75038244E-001  6.26959821E-001  2.25768355E-003
Al  3.77455740E-001  5.00365939E-001  1.23113762E-001
Al  2.49679553E-001  6.24337965E-001  1.25018756E-001
Al  2.49120899E-001  4.97998223E-001  2.50018125E-001
Al  3.74990958E-001  6.27452702E-001  2.52086820E-001
Al  3.73386228E-001  5.01687394E-001  3.76244567E-001
Al  2.52481791E-001  6.24078443E-001  3.74980004E-001
Al  2.49910967E-001  4.99116711E-001  5.00147255E-001
Al  3.73765685E-001  6.26107200E-001  4.99980863E-001
Al  3.75528788E-001  5.00854846E-001  6.26573338E-001
Al  2.52011279E-001  6.25535076E-001  6.26291266E-001
Al  2.49264980E-001  4.97521942E-001  7.50890440E-001
Al  3.74991496E-001  6.23811070E-001  7.49964884E-001
Al  3.77233781E-001  4.99202873E-001  8.74961214E-001
Al  2.49625437E-001  6.25018332E-001  8.75366293E-001
Al  2.50708064E-001  7.50170333E-001  -1.86191697E-005
Al  3.72887732E-001  8.74827721E-001  -1.29862174E-003
Al  3.73919429E-001  7.51299053E-001  1.25905314E-001
Al  2.49580303E-001  8.73961052E-001  1.24258807E-001
Al  2.47797517E-001  7.48440626E-001  2.52283788E-001
Al  3.74342455E-001  8.75024586E-001  2.52260578E-001
Al  3.75739607E-001  7.51995449E-001  3.76937719E-001
Al  2.50061954E-001  8.77489105E-001  3.74297505E-001
Al  2.48279847E-001  7.47997102E-001  5.02402619E-001
Al  3.75038684E-001  8.75008579E-001  5.01537980E-001
Al  3.75328116E-001  7.49278593E-001  6.22539185E-001
Al  2.49990285E-001  8.76111195E-001  6.27468596E-001
Al  2.47845706E-001  7.49965058E-001  7.48423136E-001
Al  3.77124767E-001  8.72500911E-001  7.51997342E-001
Al  3.74899739E-001  7.47711334E-001  8.74196950E-001
Al  2.49977484E-001  8.74687234E-001  8.76519245E-001
Al  4.97549784E-001  2.57427627E-005  -2.49397214E-003
Al  6.25069646E-001  1.22898329E-001  1.36209717E-004
Al  6.24687228E-001  -2.49608965E-003  1.22676267E-001
Al  5.02489464E-001  1.26244934E-001  1.24830523E-001
Al  5.00022321E-001  2.49828078E-003  2.52405911E-001
Al  6.26836455E-001  1.23845623E-001  2.49782478E-001
Al  6.23990816E-001  -1.01668290E-003  3.74744699E-001
Al  5.00726852E-001  1.24736158E-001  3.74947254E-001
Al  4.99951599E-001  9.56216844E-006  5.00008692E-001
Al  6.24982582E-001  1.27389472E-001  4.98500352E-001
Al  6.25304867E-001  -2.26512207E-003  6.25260008E-001
Al  5.01031437E-001  1.24991519E-001  6.27245265E-001
Al  5.00075634E-001  -8.47202552E-006  7.49393420E-001
Al  6.23427213E-001  1.25468363E-001  7.51096891E-001
Al  6.22781883E-001  2.89274208E-005  8.76597004E-001
Al  4.98260038E-001  1.27405156E-001  8.75025223E-001
Al  5.01436826E-001  2.52376011E-001  1.46961787E-004
Al  6.24351857E-001  3.74337160E-001  1.12306754E-003
Al  6.25152207E-001  2.52499871E-001  1.23222230E-001
Al  5.00389214E-001  3.76478154E-001  1.25259353E-001
Al  5.00400090E-001  2.50246051E-001  2.50146350E-001
Al  6.25031750E-001  3.75018252E-001  2.52358168E-001
Al  6.24981125E-001  2.48612308E-001  3.75838076E-001
Al  5.00090010E-001  3.73361146E-001  3.75018712E-001
Al  4.97604934E-001  2.49402872E-001  5.01660824E-001
Al  6.25008647E-001  3.75661584E-001  5.00018108E-001
Al  6.27005272E-001  2.49295377E-001  6.27124692E-001
Al  4.99200547E-001  3.74980159E-001  6.25989921E-001
Al  4.98878237E-001  2.52161972E-001  7.47671239E-001
Al  6.23095480E-001  3.74864398E-001  7.50910021E-001
Al  6.23900418E-001  2.47721139E-001  8.74976656E-001
Al  4.99789205E-001  3.74583963E-001  8.75339770E-001
Al  5.00065319E-001  4.98970386E-001  -1.61232746E-003
Al  6.25159774E-001  6.25058296E-001  -2.95015741E-005
Al  6.25970322E-001  4.99904434E-001  1.27420148E-001
Al  5.00018146E-001  6.23543231E-001  1.24620514E-001
Al  5.00654457E-001  4.99909087E-001  2.50018643E-001
Al  6.25018286E-001  6.23096191E-001  2.50060466E-001
Al  6.24979495E-001  5.00183627E-001  3.73575762E-001
Al  5.00163810E-001  6.22503610E-001  3.74991366E-001
Al  5.01908299E-001  5.01951594E-001  4.97681859E-001
Al  6.25366510E-001  6.26926511E-001  4.99669081E-001
Al  6.24991629E-001  5.01435302E-001  6.26524987E-001
Al  4.99926502E-001  6.25406777E-001  6.23389545E-001
Al  5.00414224E-001  5.00325570E-001  7.52054820E-001
Al  6.25093287E-001  6.25008478E-001  7.50994156E-001
Al  6.22639480E-001  5.00078259E-001  8.77491878E-001
Al  4.98712507E-001  6.22717032E-001  8.72527776E-001
Al  5.02320188E-001  7.50406253E-001  -7.01143064E-005
Al  6.23337952E-001  8.72779672E-001  -1.09598150E-004
Al  6.25018446E-001  7.50065984E-001  1.24708150E-001
Al  4.99964579E-001  8.77327409E-001  1.25008386E-001
Al  4.99060479E-001  7.47575222E-001  2.52448456E-001
Al  6.25265089E-001  8.73891875E-001  2.50110043E-001
Al  6.24884977E-001  7.51211067E-001  3.74981891E-001
Al  5.00346648E-001  8.75094334E-001  3.75039398E-001
Al  5.00798861E-001  7.49431090E-001  4.98814745E-001
Al  6.25018175E-001  8.75612974E-001  4.99822922E-001
Al  6.26480333E-001  7.49962791E-001  6.25035112E-001
Al  4.98528303E-001  8.75111740E-001  6.26141080E-001
Al  5.02304912E-001  7.50043726E-001  7.49965179E-001
Al  6.25489856E-001  8.74991367E-001  7.52307145E-001
Al  6.25231271E-001  7.49979273E-001  8.75019671E-001
Al  4.99952738E-001  8.75027903E-001  8.75514959E-001
Al  7.52364246E-001  1.69085458E-003  -9.71633249E-004
Al  8.74961021E-001  1.25008404E-001  2.49805246E-003
Al  8.75334823E-001  -4.62883261E-004  1.25630730E-001
Al  7.52475088E-001  1.24991571E-001  1.23097124E-001
Al  7.51274601E-001  1.60847152E-003  2.48915278E-001
Al  8.77382749E-001  1.23464077E-001  2.50526542E-001
Al  8.72520292E-001  -2.41074745E-003  3.74665500E-001
Al  7.49973390E-001  1.22593456E-001  3.74981337E-001
Al  7.49138106E-001  1.53998483E-003  5.01458402E-001
Al  8.75008965E-001  1.25202856E-001  4.99596285E-001
Al  8.77000101E-001  1.38926044E-004  6.23330952E-001
Al  7.47503317E-001  1.25366178E-001  6.22931353E-001
Al  7.47830904E-001  2.46902054E-003  7.49981670E-001
Al  8.75499585E-001  1.23052002E-001  7.49945739E-001
Al  8.75180790E-001  -6.13585114E-004  8.77318456E-001
Al  7.48668722E-001  1.25019697E-001  8.74905977E-001
Al  7.52498867E-001  2.50657440E-001  1.46943443E-003
Al  8.72500033E-001  3.74833147E-001  1.80794736E-003
Al  8.77364696E-001  2.51661056E-001  1.24673126E-001
Al  7.49865459E-001  3.74942658E-001  1.22503770E-001
Al  7.49603331E-001  2.49935914E-001  2.50589734E-001
Al  8.76216255E-001  3.74991466E-001  2.50298776E-001
Al  8.76155279E-001  2.49837344E-001  3.72793545E-001
Al  7.49982536E-001  3.76007589E-001  3.76124794E-001
Al  7.49991236E-001  2.52276504E-001  5.00038012E-001
Al  8.76769216E-001  3.74981579E-001  4.98336990E-001
Al  8.74429185E-001  2.51652289E-001  6.27017957E-001
Al  7.49991624E-001  3.74770155E-001  6.27497941E-001
Al  7.48015649E-001  2.50095102E-001  7.49991231E-001
Al  8.74925440E-001  3.76579696E-001  7.51525644E-001
Al  8.75193162E-001  2.49357964E-001  8.75637380E-001
Al  7.49969886E-001  3.74332639E-001  8.76875218E-001
Al  7.49670405E-001  4.99169975E-001  2.35904184E-003
Al  8.75033935E-001  6.24965859E-001  -1.52551842E-003
Al  8.74504510E-001  4.99296000E-001  1.25087586E-001
Al  7.50555402E-001  6.25008637E-001  1.24749491E-001
Al  7.49752307E-001  5.02306072E-001  2.49842778E-001
Al  8.73136943E-001  6.26006647E-001  2.50103003E-001
Al  8.75171732E-001  5.00040076E-001  3.75249465E-001
Al  7.48775144E-001  6.24748896E-001  3.74963444E-001
Al  7.49735929E-001  5.01461098E-001  4.98336922E-001
Al  8.75900584E-001  6.25162514E-001  4.99980172E-001
Al  8.74495798E-001  5.01897256E-001  6.25881359E-001
Al  7.50009675E-001  6.25018113E-001  6.22624684E-001
Al  7.48267791E-001  4.99722624E-001  7.50019397E-001
Al  8.72698231E-001  6.24538846E-001  7.51699611E-001
Al  8.77005177E-001  4.99869615E-001  8.74200190E-001
Al  7.50018401E-001  6.24991626E-001  8.74991217E-001
Al  7.49787647E-001  7.48258484E-001  -8.71708009E-005
Al  8.77347346E-001  8.76384058E-001  7.52118737E-004
Al  8.75020694E-001  7.47744721E-001  1.25047244E-001
Al  7.48844371E-001  8.73724870E-001  1.25008409E-001
Al  7.50593383E-001  7.49029822E-001  2.48468769E-001
Al  8.75851022E-001  8.74749805E-001  2.48421164E-001
Al  8.75024035E-001  7.49953715E-001  3.74754835E-001
Al  7.50135515E-001  8.75186119E-001  3.75066339E-001
Al  7.49991458E-001  7.49022103E-001  4.99912411E-001
Al  8.76902776E-001  8.73446315E-001  5.00042776E-001
Al  8.74942962E-001  7.49921864E-001  6.24990441E-001
Al  7.49456119E-001  8.76736740E-001  6.26153586E-001
Al  7.47707753E-001  7.51671334E-001  7.50076747E-001
Al  8.74949744E-001  8.73850334E-001  7.50185424E-001
Al  8.73723175E-001  7.48039663E-001  8.72821515E-001
Al  7.49836614E-001  8.72623322E-001  8.73261060E-001
K_POINTS automatic
2 2 2 1 1 1
