&CONTROL
restart_mode = 'from_scratch',
calculation = 'scf',
outdir = '/gpfs/bb/bxp912/scratch',
pseudo_dir = '/gpfs/bb/bxp912/pseudopotentials',
prefix = '2.48000000E-001',
etot_conv_thr = 1.00000000E-007,
forc_conv_thr = 1.00000000E-007,
nstep = 200,
tprnfor = .true.,
tstress = .true.,
disk_io = 'low',
/
&SYSTEM
ibrav = 14,
celldm(1) = 3.05001797E+001,
celldm(2) = 1.00000000E+000,
celldm(3) = 1.00000000E+000,
celldm(4) = 0.00000000E+000,
celldm(5) = 0.00000000E+000,
celldm(6) = 0.00000000E+000,
nat = 256,
ntyp = 1,
ecutwfc = 35,
ecutrho = 208,
occupations = 'smearing',
smearing = 'mv',
degauss = 5.00000007E-002,
/
&ELECTRONS
diagonalization = 'david',
mixing_mode = plain,
mixing_beta = 6.99999988E-001,
conv_thr = 1.00000000E-007,
/
&IONS
ion_dynamics = 'bfgs',
/
&CELL
cell_dynamics = 'bfgs',
press = 0.00000000E+000,
cell_factor = 2.00000000E+000,
/
ATOMIC_SPECIES
Al  2.69815390E+001  Al.pbe-n-kjpaw_psl.0.1.UPF
ATOMIC_POSITIONS crystal
Al  8.55070426E-006  -2.09455195E-003  1.86888679E-003
Al  1.24991121E-001  1.25309897E-001  7.60787010E-005
Al  1.22826447E-001  9.32653730E-006  1.22968113E-001
Al  1.71292941E-003  1.23161912E-001  1.24432361E-001
Al  -4.33995062E-004  1.93880886E-005  2.51190255E-001
Al  1.27372730E-001  1.24785772E-001  2.50484371E-001
Al  1.25475827E-001  8.82730234E-006  3.73319641E-001
Al  -5.60268725E-005  1.22634132E-001  3.77498673E-001
Al  -1.87791219E-005  2.42569711E-005  5.00094367E-001
Al  1.26207763E-001  1.25672454E-001  4.99981420E-001
Al  1.23408889E-001  -4.12927757E-004  6.26154679E-001
Al  -3.53808466E-004  1.26422704E-001  6.25033146E-001
Al  8.37524509E-006  -1.44871945E-003  7.49943451E-001
Al  1.24370877E-001  1.25158239E-001  7.50129176E-001
Al  1.25067692E-001  2.20239261E-003  8.76539624E-001
Al  -2.44192786E-003  1.27182563E-001  8.74165207E-001
Al  -1.88248806E-003  2.50719126E-001  1.81352982E-005
Al  1.26121610E-001  3.77496797E-001  -1.56675381E-003
Al  1.23483670E-001  2.48862509E-001  1.24981844E-001
Al  1.09498324E-004  3.75009000E-001  1.24688413E-001
Al  2.45131987E-004  2.49684001E-001  2.50018199E-001
Al  1.26662315E-001  3.75561910E-001  2.50303219E-001
Al  1.24322341E-001  2.49957344E-001  3.72502228E-001
Al  -5.87253079E-004  3.76054563E-001  3.74991383E-001
Al  -9.37182806E-005  2.49584695E-001  5.01753856E-001
Al  1.26968558E-001  3.74910872E-001  5.01998923E-001
Al  1.24254405E-001  2.51373060E-001  6.27188001E-001
Al  -3.07792157E-004  3.75018241E-001  6.24837977E-001
Al  -1.15338702E-003  2.49711504E-001  7.47552856E-001
Al  1.25147257E-001  3.75008400E-001  7.49483077E-001
Al  1.26133636E-001  2.49497959E-001  8.73725432E-001
Al  -8.94207352E-004  3.74128011E-001  8.76484410E-001
Al  2.25519526E-003  5.02426063E-001  1.77756320E-003
Al  1.24611936E-001  6.22805602E-001  -7.43459560E-005
Al  1.25737420E-001  4.99978656E-001  1.25300268E-001
Al  1.08567877E-003  6.24018882E-001  1.22939627E-001
Al  -2.49758601E-003  5.00050904E-001  2.48116052E-001
Al  1.26207560E-001  6.25038387E-001  2.52430493E-001
Al  1.24884910E-001  4.99981838E-001  3.74733751E-001
Al  9.89619152E-004  6.24951249E-001  3.73594940E-001
Al  -1.41187760E-004  4.99964537E-001  4.99948099E-001
Al  1.25740763E-001  6.25804172E-001  5.00035762E-001
Al  1.27426015E-001  5.00008407E-001  6.27254046E-001
Al  2.35957849E-004  6.27468485E-001  6.23616674E-001
Al  9.91568607E-004  4.98457092E-001  7.49719386E-001
Al  1.27493115E-001  6.25185195E-001  7.49959402E-001
Al  1.23154673E-001  5.02306433E-001  8.75465201E-001
Al  2.24603992E-003  6.24937495E-001  8.73509461E-001
Al  1.31120720E-003  7.49981841E-001  2.01158021E-003
Al  1.25027603E-001  8.74991597E-001  -2.36061190E-003
Al  1.24965759E-001  7.52096567E-001  1.25362825E-001
Al  -8.37015219E-006  8.75018347E-001  1.25900543E-001
Al  -9.54540634E-005  7.52485312E-001  2.49573534E-001
Al  1.23449137E-001  8.75266938E-001  2.52099250E-001
Al  1.23182150E-001  7.50349661E-001  3.74982994E-001
Al  2.47942473E-003  8.75460954E-001  3.76813179E-001
Al  2.10513908E-003  7.50024004E-001  5.00009084E-001
Al  1.25157609E-001  8.74402240E-001  4.99857742E-001
Al  1.24969899E-001  7.50591078E-001  6.24875611E-001
Al  -1.13381959E-003  8.73872184E-001  6.23402474E-001
Al  2.02862057E-003  7.47769508E-001  7.49960083E-001
Al  1.26282999E-001  8.73017949E-001  7.47612718E-001
Al  1.25028482E-001  7.49949120E-001  8.73328110E-001
Al  -2.24406716E-004  8.73073788E-001  8.75274574E-001
Al  2.49929806E-001  3.30109535E-004  7.43671592E-004
Al  3.75202154E-001  1.25158612E-001  -1.04845591E-003
Al  3.76730377E-001  -1.88094517E-005  1.27129962E-001
Al  2.50030021E-001  1.25027397E-001  1.25008767E-001
Al  2.50046526E-001  -2.44047177E-003  2.47882560E-001
Al  3.75032961E-001  1.27277464E-001  2.50147688E-001
Al  3.74910455E-001  1.32903674E-003  3.77489049E-001
Al  2.52055779E-001  1.24991545E-001  3.76982909E-001
Al  2.47502518E-001  -4.36384259E-005  4.97746353E-001
Al  3.75297886E-001  1.27443280E-001  5.00194206E-001
Al  3.75593940E-001  -5.73928156E-005  6.22501202E-001
Al  2.51797413E-001  1.25341294E-001  6.23887255E-001
Al  2.47553602E-001  -4.73108471E-005  7.49981458E-001
Al  3.74974677E-001  1.23440113E-001  7.47529011E-001
Al  3.77482560E-001  -1.94185413E-003  8.74138800E-001
Al  2.47739515E-001  1.25018933E-001  8.75905821E-001
Al  2.50094015E-001  2.49991598E-001  5.33687172E-004
Al  3.73823790E-001  3.74981865E-001  -4.57736904E-004
Al  3.76905978E-001  2.52052416E-001  1.25299921E-001
Al  2.48288564E-001  3.73747244E-001  1.26698770E-001
Al  2.49982053E-001  2.50166568E-001  2.52260758E-001
Al  3.74965747E-001  3.76805102E-001  2.52207178E-001
Al  3.76084897E-001  2.50110178E-001  3.72861829E-001
Al  2.49457951E-001  3.74991630E-001  3.75604566E-001
Al  2.50090754E-001  2.48159231E-001  4.98724887E-001
Al  3.75528378E-001  3.75172570E-001  4.98644263E-001
Al  3.74799638E-001  2.48033785E-001  6.22758893E-001
Al  2.49757204E-001  3.75620554E-001  6.27224444E-001
Al  2.49863762E-001  2.49915111E-001  7.50191014E-001
Al  3.74215374E-001  3.77453798E-001  7.47575928E-001
Al  3.73879533E-001  2.51136287E-001  8.75343805E-001
Al  2.48380314E-001  3.74991484E-001  8.74587408E-001
Al  2.48070269E-001  4.97505797E-001  1.85666615E-005
Al  3.75403580E-001  6.24839718E-001  -2.61900852E-005
Al  3.73470448E-001  4.98231202E-001  1.25750595E-001
Al  2.52324213E-001  6.24385266E-001  1.26978788E-001
Al  2.50169526E-001  4.99908549E-001  2.49951980E-001
Al  3.75022215E-001  6.24306061E-001  2.50940062E-001
Al  3.75136235E-001  5.00081690E-001  3.74344667E-001
Al  2.48047063E-001  6.24939998E-001  3.75316663E-001
Al  2.49945603E-001  4.99445289E-001  4.97675796E-001
Al  3.73417041E-001  6.27231513E-001  5.00332837E-001
Al  3.75093706E-001  4.98061502E-001  6.27415963E-001
Al  2.52142365E-001  6.24977904E-001  6.22810793E-001
Al  2.50098567E-001  5.00588377E-001  7.50009102E-001
Al  3.75636428E-001  6.25064193E-001  7.48784841E-001
Al  3.73442116E-001  5.01912603E-001  8.74679988E-001
Al  2.50703419E-001  6.23669772E-001  8.74980042E-001
Al  2.47876899E-001  7.48066209E-001  -1.73197090E-003
Al  3.75281143E-001  8.76958766E-001  -5.09880346E-004
Al  3.75793607E-001  7.49991030E-001  1.25102693E-001
Al  2.47596625E-001  8.74253460E-001  1.26257084E-001
Al  2.50894152E-001  7.50107620E-001  2.49351434E-001
Al  3.73645858E-001  8.74699151E-001  2.50225580E-001
Al  3.76535679E-001  7.49141288E-001  3.72502060E-001
Al  2.49946160E-001  8.74874221E-001  3.74981538E-001
Al  2.50755530E-001  7.50712491E-001  4.97509455E-001
Al  3.73067339E-001  8.75225177E-001  5.00236601E-001
Al  3.75203418E-001  7.50008782E-001  6.24336899E-001
Al  2.52457480E-001  8.76612219E-001  6.24180299E-001
Al  2.47847426E-001  7.49991162E-001  7.50009399E-001
Al  3.72985927E-001  8.75215124E-001  7.49990434E-001
Al  3.72624561E-001  7.50744288E-001  8.74831328E-001
Al  2.52498333E-001  8.73188011E-001  8.74864905E-001
Al  5.00008425E-001  2.12853572E-004  1.86385338E-003
Al  6.24873098E-001  1.25066195E-001  -1.57265132E-003
Al  6.24859696E-001  1.34863731E-003  1.25049270E-001
Al  5.01412754E-001  1.24794518E-001  1.24449817E-001
Al  5.00008438E-001  -7.74636182E-004  2.50062759E-001
Al  6.24734112E-001  1.25431589E-001  2.52471916E-001
Al  6.26417981E-001  1.20670660E-003  3.75027241E-001
Al  5.00514938E-001  1.25071631E-001  3.74547615E-001
Al  5.00096634E-001  -5.97299554E-004  4.98160290E-001
Al  6.24980181E-001  1.25185192E-001  5.00101992E-001
Al  6.24465497E-001  2.06667357E-004  6.25072372E-001
Al  4.99778998E-001  1.23732585E-001  6.22526817E-001
Al  4.99900084E-001  6.33877419E-004  7.50243438E-001
Al  6.24979426E-001  1.26281703E-001  7.49745374E-001
Al  6.24666854E-001  2.94521234E-005  8.76585585E-001
Al  4.99915917E-001  1.24692063E-001  8.72500112E-001
Al  4.97655240E-001  2.48527988E-001  1.92104697E-005
Al  6.25074592E-001  3.75008713E-001  -2.40377422E-003
Al  6.24865850E-001  2.49958127E-001  1.23535350E-001
Al  4.99051803E-001  3.73825841E-001  1.23503585E-001
Al  4.99434336E-001  2.50199355E-001  2.50176477E-001
Al  6.24795380E-001  3.75950182E-001  2.50201552E-001
Al  6.22671108E-001  2.47589202E-001  3.74932355E-001
Al  5.00048764E-001  3.75170117E-001  3.73468818E-001
Al  5.02169967E-001  2.50018128E-001  4.98120629E-001
Al  6.26900620E-001  3.74864696E-001  4.99991404E-001
Al  6.25137369E-001  2.49718070E-001  6.24698500E-001
Al  5.00608731E-001  3.74981477E-001  6.24614044E-001
Al  5.01228258E-001  2.50018792E-001  7.51812483E-001
Al  6.26689694E-001  3.76951563E-001  7.50018219E-001
Al  6.22690682E-001  2.49979259E-001  8.77102728E-001
Al  4.99677142E-001  3.75198517E-001  8.74705242E-001
Al  5.01450927E-001  5.01012354E-001  1.98210780E-004
Al  6.26814426E-001  6.25998277E-001  9.50066782E-005
Al  6.22886964E-001  5.00583249E-001  1.25008467E-001
Al  5.00331061E-001  6.27082186E-001  1.24244091E-001
Al  4.99631624E-001  5.00095892E-001  2.49939664E-001
Al  6.25064881E-001  6.24981212E-001  2.52190868E-001
Al  6.26899379E-001  5.00928029E-001  3.73295445E-001
Al  4.99958136E-001  6.23354162E-001  3.75127242E-001
Al  4.97716430E-001  5.00044960E-001  4.99500497E-001
Al  6.24954009E-001  6.25019117E-001  5.00317330E-001
Al  6.23705775E-001  5.01330267E-001  6.26670043E-001
Al  4.99885765E-001  6.26171095E-001  6.25009333E-001
Al  5.02429544E-001  4.99990547E-001  7.49135307E-001
Al  6.27478802E-001  6.24529589E-001  7.50753168E-001
Al  6.24951511E-001  4.99982050E-001  8.75663801E-001
Al  4.99178704E-001  6.23286879E-001  8.75032700E-001
Al  5.02021032E-001  7.49791346E-001  -2.49930371E-003
Al  6.25054979E-001  8.74981873E-001  2.49329480E-003
Al  6.24086497E-001  7.50034599E-001  1.24964315E-001
Al  5.00520017E-001  8.72823911E-001  1.25111809E-001
Al  4.98244967E-001  7.49966480E-001  2.47617932E-001
Al  6.24478711E-001  8.75008413E-001  2.49751721E-001
Al  6.25018193E-001  7.47647140E-001  3.77299308E-001
Al  5.01063888E-001  8.72606145E-001  3.74981343E-001
Al  5.02456695E-001  7.49607371E-001  4.97653104E-001
Al  6.24907674E-001  8.75060171E-001  5.00040541E-001
Al  6.22705155E-001  7.49236505E-001  6.25017403E-001
Al  4.98469269E-001  8.74809292E-001  6.24535293E-001
Al  5.02248826E-001  7.49855985E-001  7.52090211E-001
Al  6.22945207E-001  8.74210779E-001  7.50072386E-001
Al  6.25018532E-001  7.48013088E-001  8.77363038E-001
Al  4.98519744E-001  8.77347646E-001  8.75188838E-001
Al  7.50231288E-001  1.75059036E-005  -1.83379435E-003
Al  8.75426725E-001  1.27034606E-001  -3.41380456E-005
Al  8.72510204E-001  2.44745587E-003  1.27251948E-001
Al  7.47536387E-001  1.24976191E-001  1.24305702E-001
Al  7.48496026E-001  8.66244618E-006  2.48035066E-001
Al  8.74849286E-001  1.25271568E-001  2.50066056E-001
Al  8.75537546E-001  1.81135842E-005  3.74589143E-001
Al  7.51856380E-001  1.25263791E-001  3.74991106E-001
Al  7.50008575E-001  -1.93789141E-003  4.98791765E-001
Al  8.74981887E-001  1.23140186E-001  4.99909235E-001
Al  8.74991614E-001  -6.61458204E-004  6.22865846E-001
Al  7.49981885E-001  1.24563513E-001  6.25018199E-001
Al  7.51301183E-001  8.21584868E-004  7.50460260E-001
Al  8.74756036E-001  1.26969368E-001  7.49832552E-001
Al  8.74975649E-001  -8.37799395E-006  8.74981345E-001
Al  7.47993648E-001  1.27245430E-001  8.76256943E-001
Al  7.48169349E-001  2.50823943E-001  1.00023186E-004
Al  8.72546322E-001  3.73158848E-001  -1.82016899E-005
Al  8.73641030E-001  2.50069399E-001  1.22607299E-001
Al  7.50036287E-001  3.75628843E-001  1.26148355E-001
Al  7.49969156E-001  2.49939325E-001  2.50978558E-001
Al  8.72904538E-001  3.75026092E-001  2.47516559E-001
Al  8.72813436E-001  2.47564404E-001  3.74916428E-001
Al  7.50019416E-001  3.73650475E-001  3.74469439E-001
Al  7.51817188E-001  2.49991304E-001  4.99787241E-001
Al  8.74580478E-001  3.77331269E-001  5.00025976E-001
Al  8.74659941E-001  2.49854763E-001  6.23446810E-001
Al  7.47504615E-001  3.72556117E-001  6.24944914E-001
Al  7.52345419E-001  2.50018561E-001  7.50357454E-001
Al  8.73103553E-001  3.75008928E-001  7.50656264E-001
Al  8.77498902E-001  2.50278198E-001  8.74496601E-001
Al  7.49966996E-001  3.74958903E-001  8.73307166E-001
Al  7.49648473E-001  4.97507272E-001  -5.02666028E-004
Al  8.77334767E-001  6.26347630E-001  -7.20998269E-004
Al  8.74971474E-001  5.02422322E-001  1.26533526E-001
Al  7.49981664E-001  6.25116177E-001  1.23870316E-001
Al  7.50946109E-001  5.00020285E-001  2.50025912E-001
Al  8.76112485E-001  6.25366915E-001  2.50489042E-001
Al  8.75436689E-001  5.00044774E-001  3.72946317E-001
Al  7.49981531E-001  6.22605063E-001  3.72525163E-001
Al  7.50149620E-001  5.00646690E-001  4.97501991E-001
Al  8.72558942E-001  6.27242268E-001  4.99945335E-001
Al  8.74921664E-001  5.00394473E-001  6.26825584E-001
Al  7.49990352E-001  6.25018232E-001  6.27495943E-001
Al  7.49925409E-001  5.00082828E-001  7.48482024E-001
Al  8.74567729E-001  6.23727128E-001  7.51845127E-001
Al  8.74837120E-001  5.00095245E-001  8.74949613E-001
Al  7.52405027E-001  6.22727328E-001  8.75449453E-001
Al  7.48191940E-001  7.50008432E-001  8.66974919E-006
Al  8.76641741E-001  8.77469296E-001  -9.76363394E-006
Al  8.75576670E-001  7.49707422E-001  1.26407812E-001
Al  7.50758717E-001  8.77368126E-001  1.24320863E-001
Al  7.50008632E-001  7.50294764E-001  2.48569669E-001
Al  8.76909211E-001  8.75464892E-001  2.49463069E-001
Al  8.75568199E-001  7.49670135E-001  3.74971653E-001
Al  7.50018262E-001  8.74971753E-001  3.73566637E-001
Al  7.49020966E-001  7.49882267E-001  4.98689663E-001
Al  8.74729054E-001  8.75164278E-001  5.01013445E-001
Al  8.74897045E-001  7.50523074E-001  6.23713120E-001
Al  7.52493966E-001  8.74092526E-001  6.25018253E-001
Al  7.50618440E-001  7.50008439E-001  7.50020063E-001
Al  8.73523237E-001  8.74353955E-001  7.49981888E-001
Al  8.72592268E-001  7.50018531E-001  8.72561461E-001
Al  7.51859781E-001  8.73811935E-001  8.76198426E-001
K_POINTS automatic
2 2 2 1 1 1
