&CONTROL
restart_mode = 'from_scratch',
calculation = 'scf',
outdir = '/gpfs/bb/bxp912/scratch',
pseudo_dir = '/gpfs/bb/bxp912/pseudopotentials',
prefix = '2.48000000E-001',
etot_conv_thr = 1.00000000E-007,
forc_conv_thr = 1.00000000E-007,
nstep = 200,
tprnfor = .true.,
tstress = .true.,
disk_io = 'low',
/
&SYSTEM
ibrav = 14,
celldm(1) = 3.05001797E+001,
celldm(2) = 1.00000000E+000,
celldm(3) = 1.00000000E+000,
celldm(4) = 0.00000000E+000,
celldm(5) = 0.00000000E+000,
celldm(6) = 0.00000000E+000,
nat = 256,
ntyp = 1,
ecutwfc = 35,
ecutrho = 208,
occupations = 'smearing',
smearing = 'mv',
degauss = 5.00000007E-002,
/
&ELECTRONS
diagonalization = 'david',
mixing_mode = plain,
mixing_beta = 6.99999988E-001,
conv_thr = 1.00000000E-007,
/
&IONS
ion_dynamics = 'bfgs',
/
&CELL
cell_dynamics = 'bfgs',
press = 0.00000000E+000,
cell_factor = 2.00000000E+000,
/
ATOMIC_SPECIES
Al  2.69815390E+001  Al.pbe-n-kjpaw_psl.0.1.UPF
ATOMIC_POSITIONS crystal
Al  3.86780855E-005  -2.73110995E-004  2.29535446E-003
Al  1.23584978E-001  1.24606613E-001  -2.26893881E-004
Al  1.22609655E-001  1.81097639E-003  1.25837455E-001
Al  -1.08221064E-004  1.24981086E-001  1.24981758E-001
Al  -1.54315561E-004  1.81481285E-005  2.52454939E-001
Al  1.25061031E-001  1.22544902E-001  2.49119424E-001
Al  1.24643899E-001  -5.52254175E-005  3.76182965E-001
Al  2.35676797E-003  1.25024598E-001  3.75068436E-001
Al  -2.35599553E-003  -9.56809830E-005  5.00029368E-001
Al  1.24799015E-001  1.24445755E-001  4.99843200E-001
Al  1.27124631E-001  2.04499567E-003  6.26861784E-001
Al  -1.50573424E-004  1.24895572E-001  6.22573702E-001
Al  9.59318919E-005  2.41025306E-003  7.49962940E-001
Al  1.25114665E-001  1.25301546E-001  7.49525167E-001
Al  1.25317747E-001  5.58599427E-004  8.75018777E-001
Al  3.73520372E-004  1.22502213E-001  8.75233388E-001
Al  -1.80381129E-004  2.48344976E-001  -1.32276593E-003
Al  1.25546273E-001  3.75155748E-001  1.86347141E-005
Al  1.24885121E-001  2.49040758E-001  1.25051785E-001
Al  6.10694046E-004  3.76871386E-001  1.23889201E-001
Al  2.10124810E-003  2.50379657E-001  2.47587589E-001
Al  1.22502212E-001  3.75049368E-001  2.50018709E-001
Al  1.25372729E-001  2.49952814E-001  3.75729323E-001
Al  1.50417935E-003  3.75947418E-001  3.77469181E-001
Al  -6.94746975E-004  2.49191325E-001  5.02077690E-001
Al  1.24975065E-001  3.73240476E-001  4.97668684E-001
Al  1.26408576E-001  2.50215727E-001  6.27192626E-001
Al  4.47213915E-004  3.74990504E-001  6.23292099E-001
Al  2.45487600E-003  2.50027090E-001  7.50009477E-001
Al  1.26020945E-001  3.73449844E-001  7.49322394E-001
Al  1.26088797E-001  2.47847193E-001  8.76012776E-001
Al  -2.04045759E-003  3.74914103E-001  8.77462951E-001
Al  3.16640597E-005  5.00118189E-001  -2.32850365E-003
Al  1.24044805E-001  6.25251423E-001  -1.44639760E-003
Al  1.25743813E-001  4.97842602E-001  1.25008399E-001
Al  -1.35021189E-003  6.23371051E-001  1.25025170E-001
Al  -2.47127751E-003  4.99398110E-001  2.50274729E-001
Al  1.23182811E-001  6.27312145E-001  2.51748653E-001
Al  1.24952991E-001  5.00008413E-001  3.76794234E-001
Al  -1.39097354E-004  6.22696703E-001  3.72774946E-001
Al  -7.70340059E-004  5.00018370E-001  5.00975637E-001
Al  1.25879771E-001  6.23783979E-001  4.99714922E-001
Al  1.27405089E-001  5.00805730E-001  6.24712337E-001
Al  2.82341579E-005  6.27058189E-001  6.22501070E-001
Al  -1.11916999E-004  5.00021392E-001  7.47513169E-001
Al  1.26985492E-001  6.27471813E-001  7.48311866E-001
Al  1.24979882E-001  4.98225529E-001  8.72628462E-001
Al  6.30279135E-005  6.24420737E-001  8.74395516E-001
Al  5.14925759E-004  7.50161154E-001  -1.43914320E-004
Al  1.24978434E-001  8.74991625E-001  -1.66690136E-003
Al  1.25357722E-001  7.50166184E-001  1.22535197E-001
Al  1.49112135E-003  8.75064125E-001  1.25264779E-001
Al  1.29523923E-004  7.50510317E-001  2.49024088E-001
Al  1.22748365E-001  8.75818735E-001  2.50170425E-001
Al  1.27168161E-001  7.50508726E-001  3.75033445E-001
Al  -6.96604111E-005  8.72505390E-001  3.77499900E-001
Al  -1.81695452E-005  7.50364163E-001  4.99981704E-001
Al  1.27466106E-001  8.77385769E-001  4.97682368E-001
Al  1.24941934E-001  7.51534068E-001  6.26297018E-001
Al  9.15729400E-004  8.75958517E-001  6.25858328E-001
Al  -3.34854972E-004  7.50070594E-001  7.50063701E-001
Al  1.25100674E-001  8.76443532E-001  7.51981941E-001
Al  1.24915543E-001  7.50449674E-001  8.74543379E-001
Al  -2.25998456E-003  8.75019481E-001  8.75168313E-001
Al  2.52486070E-001  2.49963565E-003  -6.74447433E-005
Al  3.74007193E-001  1.23856820E-001  -8.49860157E-005
Al  3.74952455E-001  -2.27013584E-003  1.23211074E-001
Al  2.52167183E-001  1.24951533E-001  1.25018850E-001
Al  2.52224679E-001  -8.40872511E-006  2.50008383E-001
Al  3.75019140E-001  1.22829954E-001  2.50092107E-001
Al  3.74368094E-001  -8.86599802E-004  3.75031393E-001
Al  2.50018227E-001  1.27381224E-001  3.74188748E-001
Al  2.49981418E-001  -5.64179702E-005  5.00760193E-001
Al  3.77333894E-001  1.27316414E-001  5.00458223E-001
Al  3.74975579E-001  2.43870587E-003  6.27488399E-001
Al  2.49991182E-001  1.27489306E-001  6.27479396E-001
Al  2.48028991E-001  1.82478258E-005  7.47666394E-001
Al  3.76512805E-001  1.25461670E-001  7.50914553E-001
Al  3.74481031E-001  9.57685406E-004  8.72531229E-001
Al  2.48463935E-001  1.26244484E-001  8.74904631E-001
Al  2.49981663E-001  2.50218765E-001  -1.02054884E-003
Al  3.76169177E-001  3.73870399E-001  -9.10834439E-006
Al  3.72510859E-001  2.48079520E-001  1.25131478E-001
Al  2.47581301E-001  3.72577044E-001  1.25529895E-001
Al  2.52368218E-001  2.49173880E-001  2.50811203E-001
Al  3.75511603E-001  3.74779047E-001  2.49911641E-001
Al  3.74896006E-001  2.50784691E-001  3.74833220E-001
Al  2.47714610E-001  3.77440167E-001  3.72680306E-001
Al  2.48831327E-001  2.47646943E-001  5.01625533E-001
Al  3.75079380E-001  3.75131110E-001  5.01183939E-001
Al  3.76823596E-001  2.47626148E-001  6.23423660E-001
Al  2.49917010E-001  3.73391659E-001  6.27485859E-001
Al  2.49961824E-001  2.50031972E-001  7.50018176E-001
Al  3.76096708E-001  3.74981620E-001  7.49991398E-001
Al  3.75924201E-001  2.51751212E-001  8.74862619E-001
Al  2.49962872E-001  3.75858894E-001  8.77226190E-001
Al  2.51625237E-001  5.02499406E-001  3.48376002E-005
Al  3.76155384E-001  6.22594630E-001  4.38506064E-005
Al  3.73513592E-001  5.00025814E-001  1.24852676E-001
Al  2.48233649E-001  6.25433288E-001  1.24981200E-001
Al  2.49990295E-001  4.99991490E-001  2.51829967E-001
Al  3.75802107E-001  6.24901203E-001  2.48546607E-001
Al  3.75134838E-001  4.99107811E-001  3.74278367E-001
Al  2.50017793E-001  6.26941241E-001  3.74974213E-001
Al  2.50784913E-001  4.97788454E-001  4.99990523E-001
Al  3.77302312E-001  6.23817561E-001  4.99440394E-001
Al  3.72504247E-001  5.01387668E-001  6.25076213E-001
Al  2.52213802E-001  6.22842999E-001  6.25534379E-001
Al  2.49696301E-001  5.00304645E-001  7.47745787E-001
Al  3.73229950E-001  6.23181136E-001  7.49570116E-001
Al  3.73169733E-001  5.01663485E-001  8.76607332E-001
Al  2.51216346E-001  6.24982735E-001  8.77478616E-001
Al  2.50545327E-001  7.50103896E-001  1.49465469E-003
Al  3.73913492E-001  8.73683503E-001  -1.80203120E-003
Al  3.72508901E-001  7.49981799E-001  1.25600599E-001
Al  2.48350919E-001  8.74738377E-001  1.24279839E-001
Al  2.48161387E-001  7.50181842E-001  2.49131702E-001
Al  3.74049538E-001  8.75042090E-001  2.47912048E-001
Al  3.72997528E-001  7.51999514E-001  3.75125971E-001
Al  2.51799710E-001  8.75056455E-001  3.74819043E-001
Al  2.51004096E-001  7.48882230E-001  5.02454655E-001
Al  3.73779122E-001  8.75239577E-001  4.97500243E-001
Al  3.77149502E-001  7.50996831E-001  6.24158101E-001
Al  2.50265498E-001  8.72533302E-001  6.24535314E-001
Al  2.49893265E-001  7.52406146E-001  7.47951056E-001
Al  3.72919059E-001  8.75919037E-001  7.49737715E-001
Al  3.75080613E-001  7.51083006E-001  8.72977568E-001
Al  2.49566012E-001  8.75312385E-001  8.73560212E-001
Al  5.00649045E-001  2.42639417E-004  -1.55289650E-004
Al  6.24942812E-001  1.26067201E-001  -2.71917245E-005
Al  6.23660686E-001  2.27364340E-003  1.22850637E-001
Al  5.00024662E-001  1.25047163E-001  1.23889732E-001
Al  4.99818278E-001  8.40924018E-006  2.49460109E-001
Al  6.22666281E-001  1.22923239E-001  2.49793815E-001
Al  6.23529008E-001  -2.43988752E-003  3.74733070E-001
Al  5.02149082E-001  1.23190079E-001  3.77030319E-001
Al  4.99750870E-001  -6.61255487E-005  5.00024464E-001
Al  6.25063698E-001  1.22557804E-001  5.01038278E-001
Al  6.23719370E-001  2.22387534E-003  6.24799053E-001
Al  4.97501026E-001  1.24032024E-001  6.25025453E-001
Al  4.98705189E-001  1.58778002E-003  7.51327940E-001
Al  6.22533501E-001  1.25416446E-001  7.50535904E-001
Al  6.27197291E-001  1.32899643E-003  8.72826384E-001
Al  5.00008456E-001  1.22856791E-001  8.74082766E-001
Al  4.99973445E-001  2.49916964E-001  -6.37519194E-004
Al  6.23449892E-001  3.75061253E-001  -1.29683437E-004
Al  6.22600398E-001  2.50318449E-001  1.25930541E-001
Al  5.00968629E-001  3.75018276E-001  1.26027159E-001
Al  4.98693129E-001  2.49981041E-001  2.50302664E-001
Al  6.24005321E-001  3.75115252E-001  2.51625681E-001
Al  6.27139559E-001  2.49964500E-001  3.74990734E-001
Al  5.00018730E-001  3.74347178E-001  3.74640692E-001
Al  5.00155339E-001  2.50019504E-001  4.99782230E-001
Al  6.22775688E-001  3.74944160E-001  4.99809319E-001
Al  6.25252745E-001  2.50372174E-001  6.22644739E-001
Al  4.99815128E-001  3.74980820E-001  6.25018900E-001
Al  4.98206761E-001  2.49160460E-001  7.47649083E-001
Al  6.25214791E-001  3.74640342E-001  7.49972531E-001
Al  6.24948629E-001  2.47666542E-001  8.74447100E-001
Al  5.01848684E-001  3.72705496E-001  8.73487822E-001
Al  5.00047007E-001  4.97929085E-001  1.38098093E-003
Al  6.25720720E-001  6.27366919E-001  -2.16736427E-003
Al  6.26906039E-001  5.00027030E-001  1.25111657E-001
Al  4.99294592E-001  6.25108541E-001  1.26559783E-001
Al  4.99991601E-001  5.02070472E-001  2.50113131E-001
Al  6.25490040E-001  6.27499567E-001  2.50631355E-001
Al  6.25217502E-001  4.97982700E-001  3.75104690E-001
Al  5.00424279E-001  6.24955332E-001  3.77081006E-001
Al  4.99991287E-001  5.00008488E-001  5.00180291E-001
Al  6.24874419E-001  6.25036978E-001  4.99691089E-001
Al  6.24865785E-001  4.97510097E-001  6.24731911E-001
Al  4.99926334E-001  6.24388510E-001  6.24867772E-001
Al  4.97932378E-001  5.00008479E-001  7.52083890E-001
Al  6.23127571E-001  6.24940215E-001  7.50009585E-001
Al  6.23529707E-001  5.00650664E-001  8.75106421E-001
Al  4.99748928E-001  6.23351124E-001  8.74960333E-001
Al  5.01005413E-001  7.52123921E-001  1.94841875E-003
Al  6.24488762E-001  8.73397653E-001  -1.71660750E-003
Al  6.24991610E-001  7.49488439E-001  1.27499081E-001
Al  4.98045668E-001  8.74418060E-001  1.24991224E-001
Al  4.97709118E-001  7.52357527E-001  2.49849856E-001
Al  6.22802903E-001  8.74991610E-001  2.47515903E-001
Al  6.22653792E-001  7.50008438E-001  3.74165375E-001
Al  4.99721351E-001  8.75997552E-001  3.75617251E-001
Al  5.00300147E-001  7.47829110E-001  4.99967605E-001
Al  6.24971867E-001  8.74941126E-001  4.99793864E-001
Al  6.25024545E-001  7.48372745E-001  6.24220025E-001
Al  5.00760777E-001  8.74741526E-001  6.25174352E-001
Al  4.97652426E-001  7.50107459E-001  7.51444657E-001
Al  6.27026993E-001  8.75522600E-001  7.48943945E-001
Al  6.26208084E-001  7.50040785E-001  8.74811488E-001
Al  4.99662909E-001  8.75272373E-001  8.76237649E-001
Al  7.48119372E-001  2.64436861E-005  -1.60439343E-003
Al  8.75249507E-001  1.25168544E-001  -1.30069346E-003
Al  8.72557070E-001  -4.94055916E-005  1.23733323E-001
Al  7.52109156E-001  1.26750240E-001  1.27242010E-001
Al  7.49157373E-001  8.44555312E-004  2.48533854E-001
Al  8.74863177E-001  1.25031977E-001  2.50144749E-001
Al  8.75606485E-001  -2.30506916E-003  3.73044380E-001
Al  7.52499249E-001  1.23739510E-001  3.76433172E-001
Al  7.52283000E-001  4.34113470E-005  5.01407666E-001
Al  8.77498938E-001  1.25162790E-001  5.00048043E-001
Al  8.74826637E-001  4.62125277E-005  6.24927677E-001
Al  7.49344009E-001  1.22692440E-001  6.23791378E-001
Al  7.51806229E-001  1.62497287E-003  7.49804336E-001
Al  8.74564977E-001  1.24914942E-001  7.50051092E-001
Al  8.75063230E-001  -9.47291864E-004  8.73202233E-001
Al  7.49981483E-001  1.25493071E-001  8.76727750E-001
Al  7.51552746E-001  2.48077821E-001  2.73395256E-004
Al  8.74906995E-001  3.74656432E-001  2.46911995E-003
Al  8.75138558E-001  2.50026720E-001  1.25871907E-001
Al  7.49410199E-001  3.74782394E-001  1.22500153E-001
Al  7.52132252E-001  2.52479936E-001  2.50008481E-001
Al  8.74976287E-001  3.74065906E-001  2.49990914E-001
Al  8.74906032E-001  2.50339535E-001  3.75665814E-001
Al  7.51989200E-001  3.74979723E-001  3.74622100E-001
Al  7.50220408E-001  2.50643633E-001  4.97527785E-001
Al  8.73930053E-001  3.75018237E-001  5.00043083E-001
Al  8.73672121E-001  2.47736579E-001  6.26093495E-001
Al  7.48295100E-001  3.74818306E-001  6.24939465E-001
Al  7.50054770E-001  2.50313971E-001  7.50023481E-001
Al  8.77393874E-001  3.74734541E-001  7.49991157E-001
Al  8.74959040E-001  2.49010855E-001  8.73818255E-001
Al  7.47859468E-001  3.74923250E-001  8.76896140E-001
Al  7.48108930E-001  5.00299535E-001  -8.62611766E-006
Al  8.74817600E-001  6.26271217E-001  -1.62661004E-003
Al  8.74975788E-001  4.98816226E-001  1.24935490E-001
Al  7.48185190E-001  6.24909072E-001  1.26885839E-001
Al  7.48919835E-001  4.99981874E-001  2.50377455E-001
Al  8.74938215E-001  6.24436886E-001  2.52489373E-001
Al  8.74946348E-001  4.99538608E-001  3.74991079E-001
Al  7.51134616E-001  6.24922006E-001  3.74981604E-001
Al  7.50216781E-001  4.99968257E-001  4.99897477E-001
Al  8.74029264E-001  6.24036667E-001  4.99991071E-001
Al  8.77487778E-001  4.99348225E-001  6.24867412E-001
Al  7.50020273E-001  6.25105553E-001  6.22503910E-001
Al  7.49991028E-001  5.00393759E-001  7.50019209E-001
Al  8.73125298E-001  6.24961338E-001  7.47501523E-001
Al  8.77447168E-001  4.99602579E-001  8.77241866E-001
Al  7.50078747E-001  6.24932836E-001  8.75105828E-001
Al  7.51386637E-001  7.49743274E-001  3.56291644E-004
Al  8.75711810E-001  8.72770227E-001  -2.32391877E-004
Al  8.74954187E-001  7.52399727E-001  1.25420234E-001
Al  7.50264184E-001  8.74331748E-001  1.24729814E-001
Al  7.49949682E-001  7.50019917E-001  2.49898957E-001
Al  8.77060289E-001  8.74974466E-001  2.49978809E-001
Al  8.75061862E-001  7.50008470E-001  3.75087087E-001
Al  7.52498090E-001  8.74990902E-001  3.76070391E-001
Al  7.49990992E-001  7.49953272E-001  4.99132710E-001
Al  8.74963375E-001  8.75018117E-001  4.99658035E-001
Al  8.76134507E-001  7.51473040E-001  6.22504238E-001
Al  7.47500713E-001  8.76070764E-001  6.23167403E-001
Al  7.52495291E-001  7.51918455E-001  7.50126058E-001
Al  8.74474609E-001  8.74981733E-001  7.52488289E-001
Al  8.75108168E-001  7.49585176E-001  8.76766238E-001
Al  7.50476362E-001  8.74665732E-001  8.75571857E-001
K_POINTS automatic
2 2 2 1 1 1
