&CONTROL
restart_mode = 'from_scratch',
calculation = 'scf',
outdir = '/gpfs/bb/bxp912/scratch',
pseudo_dir = '/gpfs/bb/bxp912/pseudopotentials',
prefix = '2.48000000E-001',
etot_conv_thr = 1.00000000E-007,
forc_conv_thr = 1.00000000E-007,
nstep = 200,
tprnfor = .true.,
tstress = .true.,
disk_io = 'low',
/
&SYSTEM
ibrav = 14,
celldm(1) = 3.05001797E+001,
celldm(2) = 1.00000000E+000,
celldm(3) = 1.00000000E+000,
celldm(4) = 0.00000000E+000,
celldm(5) = 0.00000000E+000,
celldm(6) = 0.00000000E+000,
nat = 256,
ntyp = 1,
ecutwfc = 35,
ecutrho = 208,
occupations = 'smearing',
smearing = 'mv',
degauss = 5.00000007E-002,
/
&ELECTRONS
diagonalization = 'david',
mixing_mode = plain,
mixing_beta = 6.99999988E-001,
conv_thr = 1.00000000E-007,
/
&IONS
ion_dynamics = 'bfgs',
/
&CELL
cell_dynamics = 'bfgs',
press = 0.00000000E+000,
cell_factor = 2.00000000E+000,
/
ATOMIC_SPECIES
Al  2.69815390E+001  Al.pbe-n-kjpaw_psl.0.1.UPF
ATOMIC_POSITIONS crystal
Al  1.55341217E-003  4.89892886E-005  -1.31785511E-003
Al  1.22528392E-001  1.24550496E-001  -9.35963284E-006
Al  1.24622195E-001  4.35582745E-005  1.24707848E-001
Al  1.21681517E-003  1.24625602E-001  1.25109764E-001
Al  8.67555041E-004  4.22030099E-005  2.48966990E-001
Al  1.25018176E-001  1.24991624E-001  2.50144767E-001
Al  1.24803565E-001  1.82646606E-005  3.75022022E-001
Al  -2.41934937E-003  1.27052286E-001  3.75564598E-001
Al  -9.33427429E-004  1.81154774E-005  5.00160021E-001
Al  1.22817514E-001  1.26979520E-001  4.98000669E-001
Al  1.25961893E-001  -2.49935333E-003  6.24981250E-001
Al  -6.45771104E-004  1.25632357E-001  6.24062943E-001
Al  -9.06691398E-006  3.82482230E-004  7.49981336E-001
Al  1.26993039E-001  1.22913717E-001  7.50306544E-001
Al  1.26019883E-001  -2.10670435E-003  8.75042497E-001
Al  9.25250663E-005  1.25028060E-001  8.75307323E-001
Al  1.81494318E-005  2.50022547E-001  -3.63156098E-004
Al  1.23031475E-001  3.75857319E-001  -1.82216352E-003
Al  1.25019039E-001  2.47543472E-001  1.23847477E-001
Al  -6.62361107E-004  3.74611123E-001  1.22585924E-001
Al  1.87983937E-005  2.49858152E-001  2.50045249E-001
Al  1.24991029E-001  3.75967917E-001  2.49632986E-001
Al  1.23171425E-001  2.50201695E-001  3.74796716E-001
Al  -3.54425049E-005  3.72600999E-001  3.75553455E-001
Al  8.66037717E-005  2.48498392E-001  5.01679574E-001
Al  1.25008647E-001  3.74438214E-001  5.00051760E-001
Al  1.24991512E-001  2.49982006E-001  6.27410098E-001
Al  -5.84572604E-005  3.76183487E-001  6.26003079E-001
Al  9.58295557E-004  2.49755292E-001  7.50055784E-001
Al  1.25009628E-001  3.77371991E-001  7.50445675E-001
Al  1.25968455E-001  2.50059898E-001  8.77498625E-001
Al  1.30813890E-003  3.73232038E-001  8.72561599E-001
Al  3.18492395E-004  5.00693147E-001  -1.79899310E-005
Al  1.23577730E-001  6.27023889E-001  6.76102182E-004
Al  1.24913931E-001  4.97509383E-001  1.23474960E-001
Al  -3.49164762E-004  6.24469899E-001  1.27242356E-001
Al  -2.19765807E-003  4.99981604E-001  2.49743711E-001
Al  1.27490841E-001  6.27432024E-001  2.49353743E-001
Al  1.24071452E-001  4.99499420E-001  3.75073523E-001
Al  1.13755942E-003  6.23835426E-001  3.74973454E-001
Al  7.89017221E-005  4.99959818E-001  5.00551135E-001
Al  1.22710556E-001  6.22624596E-001  4.99904803E-001
Al  1.25310682E-001  5.00102287E-001  6.23945898E-001
Al  -1.94585847E-004  6.26356445E-001  6.24981493E-001
Al  -1.45678781E-003  4.99235881E-001  7.49535528E-001
Al  1.25747729E-001  6.26416597E-001  7.48975515E-001
Al  1.24109316E-001  5.00258556E-001  8.74812100E-001
Al  -1.75497328E-003  6.25166674E-001  8.73442316E-001
Al  4.00021457E-004  7.47556669E-001  -2.47622311E-003
Al  1.25446969E-001  8.72508588E-001  -8.86082947E-006
Al  1.27368877E-001  7.50018385E-001  1.25008411E-001
Al  1.41318405E-003  8.77406482E-001  1.24927591E-001
Al  1.95947476E-005  7.50557624E-001  2.48662656E-001
Al  1.27369059E-001  8.74739262E-001  2.49971516E-001
Al  1.24980608E-001  7.50101253E-001  3.73846324E-001
Al  8.00576647E-004  8.72536247E-001  3.72676965E-001
Al  -1.83036294E-005  7.50841837E-001  5.01978587E-001
Al  1.25042224E-001  8.74970192E-001  4.97652432E-001
Al  1.25469396E-001  7.50100054E-001  6.24980643E-001
Al  -3.89518116E-005  8.75089738E-001  6.23472788E-001
Al  2.46073801E-003  7.50018252E-001  7.48677597E-001
Al  1.24368959E-001  8.77274967E-001  7.49640299E-001
Al  1.24303001E-001  7.50470614E-001  8.73714704E-001
Al  -3.71047564E-005  8.73493897E-001  8.77461096E-001
Al  2.48536713E-001  6.03025397E-005  8.53211495E-006
Al  3.74944713E-001  1.25067950E-001  -9.78961593E-004
Al  3.74981147E-001  9.01021348E-004  1.22908238E-001
Al  2.47631669E-001  1.25022053E-001  1.23653963E-001
Al  2.47898380E-001  2.23114480E-003  2.51323870E-001
Al  3.74981750E-001  1.25499789E-001  2.49421543E-001
Al  3.77484409E-001  9.29011022E-005  3.72517135E-001
Al  2.50036811E-001  1.24923762E-001  3.75068146E-001
Al  2.50411538E-001  -1.89707518E-003  5.02497939E-001
Al  3.73299464E-001  1.24715734E-001  5.00540257E-001
Al  3.74881470E-001  2.18910908E-003  6.24069526E-001
Al  2.50119730E-001  1.26379488E-001  6.22781163E-001
Al  2.50526047E-001  -4.54725827E-005  7.50697106E-001
Al  3.75553607E-001  1.24977249E-001  7.50174717E-001
Al  3.77495670E-001  -2.45267679E-003  8.74928174E-001
Al  2.49940352E-001  1.25489198E-001  8.75018852E-001
Al  2.50246275E-001  2.50024421E-001  1.82179722E-005
Al  3.75293935E-001  3.74981637E-001  1.51051563E-004
Al  3.77246352E-001  2.49495359E-001  1.23375158E-001
Al  2.50748592E-001  3.77494382E-001  1.25035539E-001
Al  2.49991562E-001  2.49991603E-001  2.49053550E-001
Al  3.74990948E-001  3.75256734E-001  2.50891472E-001
Al  3.73091629E-001  2.52497154E-001  3.75721037E-001
Al  2.49807613E-001  3.73307039E-001  3.74981260E-001
Al  2.48025680E-001  2.50018136E-001  4.99503294E-001
Al  3.77491666E-001  3.74878491E-001  5.00494599E-001
Al  3.73348202E-001  2.47502142E-001  6.22703857E-001
Al  2.50031623E-001  3.72506883E-001  6.24157548E-001
Al  2.47713875E-001  2.49742558E-001  7.50068061E-001
Al  3.77452814E-001  3.74879755E-001  7.50242946E-001
Al  3.73182234E-001  2.51291280E-001  8.75018761E-001
Al  2.51306010E-001  3.72507524E-001  8.72698808E-001
Al  2.49115127E-001  5.00148615E-001  -5.46460263E-005
Al  3.75018216E-001  6.22500349E-001  8.41468415E-004
Al  3.75019106E-001  4.97506835E-001  1.26638126E-001
Al  2.50075748E-001  6.24966503E-001  1.25149875E-001
Al  2.48371155E-001  5.00667603E-001  2.51706113E-001
Al  3.75376812E-001  6.24976859E-001  2.50169106E-001
Al  3.77395165E-001  4.99980667E-001  3.73857884E-001
Al  2.49940793E-001  6.27369564E-001  3.72501830E-001
Al  2.52021270E-001  4.98032632E-001  4.99766885E-001
Al  3.75057515E-001  6.24165045E-001  5.00105078E-001
Al  3.75067045E-001  5.00018600E-001  6.24764668E-001
Al  2.48310744E-001  6.22530422E-001  6.24712473E-001
Al  2.49104428E-001  5.01341055E-001  7.51736155E-001
Al  3.77187515E-001  6.25673889E-001  7.49009644E-001
Al  3.77495305E-001  5.00023002E-001  8.74016092E-001
Al  2.50060704E-001  6.25667693E-001  8.74934359E-001
Al  2.52235279E-001  7.52467846E-001  -5.76779550E-004
Al  3.75141195E-001  8.75950956E-001  1.48105680E-004
Al  3.75397029E-001  7.50364436E-001  1.26482620E-001
Al  2.48340913E-001  8.76887606E-001  1.22974551E-001
Al  2.50090652E-001  7.50349705E-001  2.50843229E-001
Al  3.76941562E-001  8.73185148E-001  2.49792092E-001
Al  3.73858689E-001  7.49979023E-001  3.74967136E-001
Al  2.47526275E-001  8.75188826E-001  3.75696074E-001
Al  2.52491119E-001  7.47557745E-001  4.99913524E-001
Al  3.74654770E-001  8.75450582E-001  4.99937937E-001
Al  3.72558107E-001  7.51413887E-001  6.24910314E-001
Al  2.50456339E-001  8.76271892E-001  6.24462536E-001
Al  2.49594898E-001  7.51379601E-001  7.52340436E-001
Al  3.74208231E-001  8.75569361E-001  7.51507975E-001
Al  3.75640021E-001  7.48683900E-001  8.76448165E-001
Al  2.50077003E-001  8.76508174E-001  8.74975231E-001
Al  4.99974127E-001  -1.23742087E-004  1.23058941E-003
Al  6.25301721E-001  1.24059014E-001  -1.71972288E-004
Al  6.24397506E-001  -2.28488665E-003  1.24954659E-001
Al  5.02388643E-001  1.25018711E-001  1.26151616E-001
Al  5.00136549E-001  -2.16256228E-003  2.50755628E-001
Al  6.24960689E-001  1.24954753E-001  2.49991342E-001
Al  6.25018771E-001  1.19314291E-003  3.74879541E-001
Al  4.99525558E-001  1.24962630E-001  3.72687718E-001
Al  4.99604664E-001  5.76524014E-004  4.99001183E-001
Al  6.23452405E-001  1.26668413E-001  4.98425304E-001
Al  6.27482503E-001  1.68607591E-003  6.24980031E-001
Al  5.00147894E-001  1.24981345E-001  6.26485663E-001
Al  4.97801805E-001  -2.26768748E-003  7.50589726E-001
Al  6.25046262E-001  1.23605108E-001  7.48166579E-001
Al  6.24948450E-001  -2.48141558E-003  8.73944174E-001
Al  4.99783033E-001  1.24956497E-001  8.73535405E-001
Al  4.99724015E-001  2.48984318E-001  -1.75857649E-004
Al  6.25008409E-001  3.75018785E-001  -9.11214901E-005
Al  6.24926628E-001  2.49784876E-001  1.22501936E-001
Al  5.01100840E-001  3.74977835E-001  1.25105112E-001
Al  4.98371184E-001  2.50443704E-001  2.50042131E-001
Al  6.26235736E-001  3.74991597E-001  2.49832393E-001
Al  6.22934908E-001  2.49564502E-001  3.74883118E-001
Al  5.00018107E-001  3.75988717E-001  3.77224778E-001
Al  5.00123165E-001  2.48772333E-001  4.99421411E-001
Al  6.22765162E-001  3.74288696E-001  5.00018658E-001
Al  6.27112631E-001  2.52257846E-001  6.24973295E-001
Al  5.00022239E-001  3.73170101E-001  6.24922673E-001
Al  4.99866235E-001  2.47801074E-001  7.50008592E-001
Al  6.25429897E-001  3.74991574E-001  7.50537899E-001
Al  6.26803417E-001  2.48156235E-001  8.74871589E-001
Al  4.99000209E-001  3.74948463E-001  8.74498881E-001
Al  5.02149980E-001  4.99816608E-001  -2.04192570E-003
Al  6.24957349E-001  6.24952346E-001  -1.17953657E-003
Al  6.24219783E-001  5.01819504E-001  1.22964052E-001
Al  5.00613218E-001  6.24382276E-001  1.27160377E-001
Al  4.99378667E-001  4.97598406E-001  2.50524990E-001
Al  6.25873738E-001  6.25270538E-001  2.51885886E-001
Al  6.25022651E-001  5.00261880E-001  3.72504722E-001
Al  5.00018530E-001  6.24405881E-001  3.74901476E-001
Al  5.00954443E-001  4.99874117E-001  4.99884594E-001
Al  6.24944885E-001  6.25149062E-001  4.97745107E-001
Al  6.24692607E-001  4.99928963E-001  6.24951646E-001
Al  5.00018284E-001  6.24221037E-001  6.24142880E-001
Al  5.01466970E-001  5.02323363E-001  7.49767464E-001
Al  6.25086266E-001  6.24991538E-001  7.50621788E-001
Al  6.26922077E-001  4.98481598E-001  8.74978269E-001
Al  5.00009655E-001  6.25018370E-001  8.72599205E-001
Al  4.98038246E-001  7.50456957E-001  3.09518019E-005
Al  6.25859907E-001  8.74955770E-001  -1.74529814E-003
Al  6.27091585E-001  7.51796313E-001  1.27448344E-001
Al  5.00946823E-001  8.73707024E-001  1.25052346E-001
Al  4.99884800E-001  7.49939596E-001  2.50445371E-001
Al  6.24981788E-001  8.74974930E-001  2.49324730E-001
Al  6.24981155E-001  7.47544973E-001  3.75229824E-001
Al  5.02228473E-001  8.74633574E-001  3.74963566E-001
Al  5.00018216E-001  7.51573686E-001  5.01350534E-001
Al  6.25139829E-001  8.74981876E-001  4.97774367E-001
Al  6.23904170E-001  7.49991368E-001  6.26962821E-001
Al  5.00008437E-001  8.75976074E-001  6.23143454E-001
Al  4.99649636E-001  7.52497564E-001  7.49961563E-001
Al  6.26750229E-001  8.74552664E-001  7.50017260E-001
Al  6.24979691E-001  7.50346711E-001  8.74160769E-001
Al  5.00028503E-001  8.74800996E-001  8.76785328E-001
Al  7.49853067E-001  -1.86470422E-005  2.49236108E-004
Al  8.72577519E-001  1.25733369E-001  -9.52724227E-006
Al  8.74991576E-001  -1.04902761E-003  1.24981377E-001
Al  7.51809814E-001  1.27498072E-001  1.22646362E-001
Al  7.50149983E-001  -2.16946542E-003  2.50325663E-001
Al  8.75020426E-001  1.26701622E-001  2.48341490E-001
Al  8.74723621E-001  -2.49729401E-003  3.75044597E-001
Al  7.50599052E-001  1.25052036E-001  3.74542164E-001
Al  7.50145713E-001  2.31467913E-004  4.98709313E-001
Al  8.73525955E-001  1.24291887E-001  5.00019810E-001
Al  8.74751206E-001  -7.48043122E-004  6.23078679E-001
Al  7.51669146E-001  1.24943338E-001  6.25008429E-001
Al  7.50792106E-001  5.26835819E-005  7.48301652E-001
Al  8.72518066E-001  1.22796858E-001  7.47955330E-001
Al  8.75403414E-001  -2.05328809E-003  8.74654463E-001
Al  7.49302554E-001  1.24555555E-001  8.72502730E-001
Al  7.50091415E-001  2.48936440E-001  1.80937677E-003
Al  8.74894600E-001  3.74442594E-001  1.41921210E-003
Al  8.75202151E-001  2.50101616E-001  1.24970456E-001
Al  7.50700617E-001  3.75017377E-001  1.25107002E-001
Al  7.49331512E-001  2.50859386E-001  2.52492152E-001
Al  8.74026263E-001  3.76714529E-001  2.50446002E-001
Al  8.77161015E-001  2.50008695E-001  3.74160009E-001
Al  7.50029165E-001  3.75893621E-001  3.75438505E-001
Al  7.50754462E-001  2.48498552E-001  5.02392624E-001
Al  8.75109945E-001  3.75091143E-001  5.00922213E-001
Al  8.74991607E-001  2.51120304E-001  6.26574705E-001
Al  7.48266177E-001  3.73279603E-001  6.25096569E-001
Al  7.50724364E-001  2.49991577E-001  7.47714595E-001
Al  8.74809668E-001  3.74981886E-001  7.51441157E-001
Al  8.74870095E-001  2.51865047E-001  8.77292973E-001
Al  7.50906394E-001  3.73851375E-001  8.74982293E-001
Al  7.48279231E-001  5.01511023E-001  1.11916064E-003
Al  8.75261657E-001  6.22914211E-001  -3.74682317E-005
Al  8.75806786E-001  4.99977781E-001  1.22774423E-001
Al  7.51946109E-001  6.24890852E-001  1.23658067E-001
Al  7.49898039E-001  5.00330509E-001  2.49714006E-001
Al  8.75515747E-001  6.24909690E-001  2.49991308E-001
Al  8.72510460E-001  4.97829529E-001  3.74889059E-001
Al  7.50396934E-001  6.23981249E-001  3.74813261E-001
Al  7.50590432E-001  5.00429243E-001  5.00018502E-001
Al  8.75889594E-001  6.23196593E-001  5.01026937E-001
Al  8.77309034E-001  5.00018375E-001  6.25296555E-001
Al  7.50412848E-001  6.23435248E-001  6.25341055E-001
Al  7.49956431E-001  5.00708800E-001  7.48423538E-001
Al  8.74955823E-001  6.25136425E-001  7.49799649E-001
Al  8.74981334E-001  4.99109365E-001  8.75018108E-001
Al  7.52336817E-001  6.22514526E-001  8.74092222E-001
Al  7.48695628E-001  7.52480529E-001  -2.29200657E-003
Al  8.75536985E-001  8.75032587E-001  -1.73690109E-003
Al  8.76861326E-001  7.49624918E-001  1.26558517E-001
Al  7.52231132E-001  8.74775207E-001  1.24976804E-001
Al  7.51109368E-001  7.50022679E-001  2.49944954E-001
Al  8.77445292E-001  8.75078839E-001  2.49978587E-001
Al  8.77489116E-001  7.50360375E-001  3.74953383E-001
Al  7.47989262E-001  8.73223903E-001  3.72554652E-001
Al  7.50870061E-001  7.52265901E-001  4.98815697E-001
Al  8.76660210E-001  8.72578621E-001  5.00008371E-001
Al  8.75578497E-001  7.50031081E-001  6.25018139E-001
Al  7.49706794E-001  8.74459692E-001  6.25018142E-001
Al  7.49920749E-001  7.52489597E-001  7.52495044E-001
Al  8.75018334E-001  8.74779615E-001  7.50379593E-001
Al  8.75245788E-001  7.50038151E-001  8.74974242E-001
Al  7.51076446E-001  8.75939083E-001  8.75008747E-001
K_POINTS automatic
2 2 2 1 1 1
