&CONTROL
restart_mode = 'from_scratch',
calculation = 'scf',
outdir = '/gpfs/bb/bxp912/scratch',
pseudo_dir = '/gpfs/bb/bxp912/pseudopotentials',
prefix = '2.48000000E-001',
etot_conv_thr = 1.00000000E-007,
forc_conv_thr = 1.00000000E-007,
nstep = 200,
tprnfor = .true.,
tstress = .true.,
disk_io = 'low',
/
&SYSTEM
ibrav = 14,
celldm(1) = 3.05001797E+001,
celldm(2) = 1.00000000E+000,
celldm(3) = 1.00000000E+000,
celldm(4) = 0.00000000E+000,
celldm(5) = 0.00000000E+000,
celldm(6) = 0.00000000E+000,
nat = 256,
ntyp = 1,
ecutwfc = 35,
ecutrho = 208,
occupations = 'smearing',
smearing = 'mv',
degauss = 5.00000007E-002,
/
&ELECTRONS
diagonalization = 'david',
mixing_mode = plain,
mixing_beta = 6.99999988E-001,
conv_thr = 1.00000000E-007,
/
&IONS
ion_dynamics = 'bfgs',
/
&CELL
cell_dynamics = 'bfgs',
press = 0.00000000E+000,
cell_factor = 2.00000000E+000,
/
ATOMIC_SPECIES
Al  2.69815390E+001  Al.pbe-n-kjpaw_psl.0.1.UPF
ATOMIC_POSITIONS crystal
Al  3.06060785E-005  9.33189043E-005  2.46821468E-003
Al  1.24130082E-001  1.26044920E-001  1.65441935E-003
Al  1.22530315E-001  -5.59511319E-005  1.24007369E-001
Al  -2.44149031E-003  1.23495429E-001  1.26521613E-001
Al  9.84685403E-005  -2.44904819E-003  2.50425337E-001
Al  1.24607561E-001  1.22912547E-001  2.49979883E-001
Al  1.25296444E-001  -8.81464240E-006  3.75061789E-001
Al  7.28145213E-005  1.24950675E-001  3.74731701E-001
Al  -2.49706783E-003  -4.20737880E-004  5.00647039E-001
Al  1.25451351E-001  1.24861635E-001  4.98586150E-001
Al  1.24116878E-001  1.42626238E-003  6.25018225E-001
Al  4.40540820E-004  1.24812119E-001  6.24891319E-001
Al  -4.24391570E-004  1.02950547E-003  7.50706040E-001
Al  1.22839829E-001  1.24991290E-001  7.50043730E-001
Al  1.22580941E-001  3.92782435E-004  8.74981088E-001
Al  2.49145207E-003  1.24811794E-001  8.76236073E-001
Al  -1.28378028E-004  2.50259048E-001  -8.82718782E-004
Al  1.24981609E-001  3.73869198E-001  -1.12857763E-004
Al  1.27436347E-001  2.49191152E-001  1.26831197E-001
Al  -2.20088297E-003  3.72730558E-001  1.22659422E-001
Al  3.14740731E-004  2.49991192E-001  2.49511307E-001
Al  1.25215164E-001  3.74658536E-001  2.49196555E-001
Al  1.22892559E-001  2.49940371E-001  3.72682975E-001
Al  1.08342541E-003  3.74780886E-001  3.76365253E-001
Al  6.34570458E-004  2.51370925E-001  5.00018624E-001
Al  1.24381778E-001  3.75435367E-001  5.02070216E-001
Al  1.25078541E-001  2.51886831E-001  6.22658008E-001
Al  2.39092934E-004  3.74991627E-001  6.23080560E-001
Al  -2.39212869E-003  2.50263945E-001  7.52476803E-001
Al  1.26518069E-001  3.74896837E-001  7.49055847E-001
Al  1.27331906E-001  2.51472567E-001  8.76835192E-001
Al  -2.11108991E-003  3.72940561E-001  8.75226144E-001
Al  -1.68573140E-003  4.99722110E-001  -1.01705576E-003
Al  1.25520282E-001  6.24875018E-001  -1.59112129E-004
Al  1.25181246E-001  5.00219645E-001  1.25189157E-001
Al  -1.15521833E-003  6.25139348E-001  1.22540858E-001
Al  -2.48747846E-003  4.99979285E-001  2.50274988E-001
Al  1.25410360E-001  6.23976909E-001  2.50017075E-001
Al  1.24132297E-001  4.99513465E-001  3.75801800E-001
Al  1.31422633E-004  6.25344681E-001  3.74687452E-001
Al  4.01407636E-004  4.97928490E-001  4.98572039E-001
Al  1.24981650E-001  6.25018712E-001  5.00118350E-001
Al  1.24990846E-001  4.98197991E-001  6.23401747E-001
Al  -2.13643131E-003  6.23554141E-001  6.27307873E-001
Al  -6.22993305E-004  4.97624499E-001  7.52112969E-001
Al  1.24045368E-001  6.26111227E-001  7.49973361E-001
Al  1.22843639E-001  4.98657955E-001  8.74980359E-001
Al  2.02310490E-003  6.26030577E-001  8.75008544E-001
Al  -2.18558358E-003  7.50018303E-001  1.48233210E-004
Al  1.25639821E-001  8.73432930E-001  8.40043833E-004
Al  1.23695702E-001  7.49981839E-001  1.25053226E-001
Al  -3.81900415E-005  8.75050174E-001  1.24009409E-001
Al  -1.93756050E-005  7.49499793E-001  2.50018401E-001
Al  1.26205096E-001  8.75455780E-001  2.50525672E-001
Al  1.24862915E-001  7.49917254E-001  3.77146274E-001
Al  1.89774985E-005  8.76228468E-001  3.74254678E-001
Al  -2.34726612E-003  7.50109844E-001  5.01920856E-001
Al  1.26774627E-001  8.74576038E-001  4.99683440E-001
Al  1.24961041E-001  7.48985245E-001  6.24284065E-001
Al  -2.15876029E-003  8.72879151E-001  6.23734421E-001
Al  2.47462480E-003  7.48018956E-001  7.47769286E-001
Al  1.25229623E-001  8.75189323E-001  7.49408633E-001
Al  1.25160821E-001  7.49898555E-001  8.75246433E-001
Al  -1.09966896E-003  8.77191384E-001  8.77175607E-001
Al  2.47564876E-001  -2.40456266E-003  2.25696412E-003
Al  3.75037463E-001  1.25019660E-001  6.13039356E-004
Al  3.75580711E-001  -9.03138389E-006  1.25824337E-001
Al  2.50254319E-001  1.25018978E-001  1.27162788E-001
Al  2.51294290E-001  2.35301209E-004  2.48921806E-001
Al  3.76173811E-001  1.25989104E-001  2.50018109E-001
Al  3.74719013E-001  1.50992302E-003  3.74948239E-001
Al  2.50008420E-001  1.24845360E-001  3.73352448E-001
Al  2.50030583E-001  1.90274655E-005  5.00008939E-001
Al  3.75119149E-001  1.27013685E-001  4.99964046E-001
Al  3.74630948E-001  -1.90800445E-003  6.24545431E-001
Al  2.48907480E-001  1.25512466E-001  6.24533847E-001
Al  2.50701046E-001  2.46630144E-003  7.50018597E-001
Al  3.74154621E-001  1.27211577E-001  7.50087603E-001
Al  3.76320665E-001  8.05424394E-004  8.74392563E-001
Al  2.52411526E-001  1.24587673E-001  8.74646452E-001
Al  2.51290828E-001  2.50039977E-001  3.28323099E-004
Al  3.74851352E-001  3.75028482E-001  4.82106257E-004
Al  3.74955695E-001  2.47515518E-001  1.25069523E-001
Al  2.50536451E-001  3.74902205E-001  1.24928424E-001
Al  2.47564971E-001  2.50520331E-001  2.49876828E-001
Al  3.77454737E-001  3.77455912E-001  2.47729824E-001
Al  3.74732146E-001  2.47501725E-001  3.74320925E-001
Al  2.51560043E-001  3.77295893E-001  3.74578832E-001
Al  2.49288060E-001  2.49978108E-001  4.99991204E-001
Al  3.76949443E-001  3.75757596E-001  4.97529479E-001
Al  3.76990513E-001  2.49569559E-001  6.23163695E-001
Al  2.47844514E-001  3.75036612E-001  6.26228905E-001
Al  2.49950942E-001  2.51503611E-001  7.52486431E-001
Al  3.74901949E-001  3.74148458E-001  7.49936288E-001
Al  3.77353416E-001  2.50594080E-001  8.75247348E-001
Al  2.47553478E-001  3.73296601E-001  8.76429008E-001
Al  2.52203520E-001  5.00008370E-001  -1.06648335E-003
Al  3.75393978E-001  6.26725477E-001  -5.19720435E-004
Al  3.75346425E-001  5.00018107E-001  1.24980138E-001
Al  2.51330963E-001  6.26743668E-001  1.25176736E-001
Al  2.49774375E-001  4.99981401E-001  2.50008373E-001
Al  3.74488888E-001  6.24907845E-001  2.50619860E-001
Al  3.72663521E-001  5.00075065E-001  3.72520074E-001
Al  2.51086647E-001  6.24850053E-001  3.73932860E-001
Al  2.47571282E-001  5.00214920E-001  4.98957458E-001
Al  3.75245544E-001  6.27439107E-001  4.97500562E-001
Al  3.77341358E-001  4.99981753E-001  6.24770403E-001
Al  2.49653821E-001  6.23568766E-001  6.22984352E-001
Al  2.49795867E-001  5.00884057E-001  7.52472092E-001
Al  3.75122162E-001  6.27447877E-001  7.47500051E-001
Al  3.74110510E-001  4.98172400E-001  8.74981607E-001
Al  2.49548327E-001  6.24234824E-001  8.74981819E-001
Al  2.49981035E-001  7.47580320E-001  -1.47226230E-003
Al  3.75765055E-001  8.76791905E-001  7.03146587E-004
Al  3.74532636E-001  7.47502516E-001  1.25083391E-001
Al  2.52496079E-001  8.75097665E-001  1.24976127E-001
Al  2.50139729E-001  7.49644354E-001  2.47590064E-001
Al  3.77330892E-001  8.74821497E-001  2.48648885E-001
Al  3.74408226E-001  7.50018669E-001  3.72543729E-001
Al  2.50018137E-001  8.77498609E-001  3.75177150E-001
Al  2.49255180E-001  7.50414188E-001  4.99833348E-001
Al  3.75425171E-001  8.73191031E-001  5.02499486E-001
Al  3.74845894E-001  7.52406296E-001  6.25046496E-001
Al  2.47974629E-001  8.75420102E-001  6.22681757E-001
Al  2.48701852E-001  7.49459147E-001  7.48390728E-001
Al  3.76307455E-001  8.74866176E-001  7.49566446E-001
Al  3.74652659E-001  7.49972009E-001  8.75022384E-001
Al  2.52389781E-001  8.73395334E-001  8.74918022E-001
Al  5.02252381E-001  1.95759708E-005  -1.22580595E-003
Al  6.24991152E-001  1.26041391E-001  -2.00243953E-005
Al  6.24859511E-001  -6.65197222E-004  1.25439590E-001
Al  5.01812608E-001  1.22526688E-001  1.25018194E-001
Al  5.01343362E-001  -2.15612799E-003  2.50356621E-001
Al  6.23545924E-001  1.24578200E-001  2.52330380E-001
Al  6.26047095E-001  2.21572321E-003  3.76121657E-001
Al  5.00075031E-001  1.26441692E-001  3.74477836E-001
Al  5.00838682E-001  1.02273456E-003  4.99968941E-001
Al  6.23391520E-001  1.27495659E-001  5.01268195E-001
Al  6.23951988E-001  2.48187250E-003  6.27269899E-001
Al  4.99846604E-001  1.24940485E-001  6.24815411E-001
Al  5.02055806E-001  -2.24000419E-005  7.49795466E-001
Al  6.23824577E-001  1.23190760E-001  7.49192313E-001
Al  6.24025320E-001  -9.44433495E-004  8.74991358E-001
Al  5.00141663E-001  1.25240517E-001  8.72773093E-001
Al  4.99487738E-001  2.50359584E-001  2.19578345E-003
Al  6.25300611E-001  3.74981873E-001  1.72153472E-003
Al  6.24977754E-001  2.49973634E-001  1.22561546E-001
Al  4.99982694E-001  3.72614173E-001  1.26866605E-001
Al  4.99906835E-001  2.49950546E-001  2.50030609E-001
Al  6.23270357E-001  3.75995234E-001  2.48676901E-001
Al  6.23915115E-001  2.49613426E-001  3.76895701E-001
Al  4.97506847E-001  3.75099708E-001  3.74948477E-001
Al  5.00720209E-001  2.50008507E-001  5.01048133E-001
Al  6.23560746E-001  3.77486367E-001  5.00612697E-001
Al  6.25023325E-001  2.47851920E-001  6.22500013E-001
Al  5.00502847E-001  3.74991275E-001  6.23340392E-001
Al  4.99384419E-001  2.49160726E-001  7.50122111E-001
Al  6.24583853E-001  3.73447440E-001  7.50276400E-001
Al  6.25017941E-001  2.48895765E-001  8.77368202E-001
Al  5.02323816E-001  3.75089114E-001  8.72663612E-001
Al  4.99772906E-001  4.99480458E-001  1.66025557E-003
Al  6.23523381E-001  6.22838866E-001  8.45416804E-006
Al  6.26485822E-001  5.02497324E-001  1.25175966E-001
Al  5.01586808E-001  6.25042554E-001  1.27429644E-001
Al  5.01363615E-001  4.98709545E-001  2.50199554E-001
Al  6.24751052E-001  6.24468025E-001  2.49871448E-001
Al  6.24981462E-001  5.00033588E-001  3.74971450E-001
Al  4.99550699E-001  6.24799820E-001  3.75147056E-001
Al  5.02499086E-001  4.99138445E-001  4.99991010E-001
Al  6.24919023E-001  6.25130266E-001  5.02187757E-001
Al  6.24444197E-001  5.01393892E-001  6.25187406E-001
Al  4.99000982E-001  6.24953018E-001  6.24991354E-001
Al  4.98781339E-001  5.01295829E-001  7.48219586E-001
Al  6.24883878E-001  6.25611908E-001  7.50017699E-001
Al  6.24991443E-001  4.99191493E-001  8.75048348E-001
Al  5.00067074E-001  6.25990386E-001  8.74565609E-001
Al  4.99855030E-001  7.51537577E-001  9.27349497E-005
Al  6.25161407E-001  8.75161629E-001  1.65587492E-003
Al  6.22501616E-001  7.47609333E-001  1.24814291E-001
Al  4.98355682E-001  8.74281624E-001  1.25311713E-001
Al  4.99801806E-001  7.49875344E-001  2.49896802E-001
Al  6.25093922E-001  8.75859269E-001  2.49535847E-001
Al  6.24138075E-001  7.47680934E-001  3.74991449E-001
Al  5.01271253E-001  8.76814650E-001  3.73035489E-001
Al  5.01095499E-001  7.50008470E-001  5.00034618E-001
Al  6.27499703E-001  8.73904163E-001  5.00766164E-001
Al  6.25094040E-001  7.49813869E-001  6.25082428E-001
Al  5.01276529E-001  8.73824541E-001  6.25094898E-001
Al  5.00489598E-001  7.47782094E-001  7.50459819E-001
Al  6.23474317E-001  8.76618285E-001  7.49887334E-001
Al  6.25168240E-001  7.50115209E-001  8.77258255E-001
Al  4.99991160E-001  8.73909718E-001  8.74916254E-001
Al  7.52254632E-001  -3.69794090E-004  5.30782913E-004
Al  8.74593152E-001  1.25020160E-001  -2.49692800E-003
Al  8.76922305E-001  -1.03585766E-004  1.25008384E-001
Al  7.50225933E-001  1.25114758E-001  1.26454848E-001
Al  7.50624556E-001  1.39709372E-003  2.51090109E-001
Al  8.75140103E-001  1.24816712E-001  2.50019061E-001
Al  8.73424144E-001  1.71143516E-003  3.72588274E-001
Al  7.48420928E-001  1.25111831E-001  3.74310309E-001
Al  7.49045242E-001  -3.75689217E-004  5.02306600E-001
Al  8.75231245E-001  1.27115205E-001  4.97535834E-001
Al  8.74981375E-001  -9.03673614E-004  6.24122120E-001
Al  7.49991327E-001  1.23855488E-001  6.22692856E-001
Al  7.52116056E-001  -8.80346320E-004  7.50021323E-001
Al  8.75255497E-001  1.24991119E-001  7.50034958E-001
Al  8.76282498E-001  1.96345736E-005  8.75163879E-001
Al  7.49991528E-001  1.25059571E-001  8.72641341E-001
Al  7.50686122E-001  2.49941269E-001  1.47558018E-003
Al  8.77052063E-001  3.74981815E-001  8.93305351E-005
Al  8.75008423E-001  2.48933585E-001  1.24991158E-001
Al  7.49525461E-001  3.73459243E-001  1.24991470E-001
Al  7.48166445E-001  2.48951820E-001  2.50017399E-001
Al  8.73428949E-001  3.74866539E-001  2.50852659E-001
Al  8.73203118E-001  2.50747740E-001  3.75865336E-001
Al  7.50024033E-001  3.73535448E-001  3.75231880E-001
Al  7.48368937E-001  2.51273746E-001  5.01056616E-001
Al  8.75336767E-001  3.75718294E-001  4.97532250E-001
Al  8.77302491E-001  2.50142126E-001  6.24775414E-001
Al  7.50180344E-001  3.77375718E-001  6.24876459E-001
Al  7.50243776E-001  2.52411997E-001  7.50008818E-001
Al  8.77376637E-001  3.76359512E-001  7.49489823E-001
Al  8.75395932E-001  2.49770429E-001  8.76863294E-001
Al  7.51263926E-001  3.74476115E-001  8.76770234E-001
Al  7.52056244E-001  5.00032806E-001  1.16002186E-004
Al  8.75277042E-001  6.25409573E-001  2.08440049E-003
Al  8.72975335E-001  4.99910934E-001  1.25018147E-001
Al  7.51479524E-001  6.24980046E-001  1.24398192E-001
Al  7.50021559E-001  4.98017921E-001  2.50790830E-001
Al  8.77471933E-001  6.22750189E-001  2.51243875E-001
Al  8.73566280E-001  5.00261209E-001  3.77489418E-001
Al  7.50018455E-001  6.25032831E-001  3.75019465E-001
Al  7.50105285E-001  4.98901079E-001  5.00126313E-001
Al  8.74533955E-001  6.23752281E-001  5.00128958E-001
Al  8.77474093E-001  4.98043738E-001  6.24213704E-001
Al  7.49963813E-001  6.23508314E-001  6.22806736E-001
Al  7.48492591E-001  5.01623156E-001  7.49460301E-001
Al  8.76195535E-001  6.25019914E-001  7.52150547E-001
Al  8.76204768E-001  4.99271628E-001  8.76468445E-001
Al  7.47940085E-001  6.24958816E-001  8.74991104E-001
Al  7.47919566E-001  7.49938414E-001  1.29653905E-004
Al  8.75112930E-001  8.73845375E-001  -3.81917146E-004
Al  8.77354842E-001  7.50327306E-001  1.23516715E-001
Al  7.50132854E-001  8.75029387E-001  1.27366848E-001
Al  7.50056292E-001  7.47602848E-001  2.50008377E-001
Al  8.75827331E-001  8.75580576E-001  2.49979814E-001
Al  8.77470164E-001  7.49981510E-001  3.74620830E-001
Al  7.50799386E-001  8.73745827E-001  3.77499858E-001
Al  7.50045364E-001  7.50018112E-001  4.99623242E-001
Al  8.74524937E-001  8.76439624E-001  4.97588881E-001
Al  8.75203559E-001  7.50017293E-001  6.23647609E-001
Al  7.49337397E-001  8.74991248E-001  6.22533047E-001
Al  7.47666868E-001  7.48485945E-001  7.52486879E-001
Al  8.74900080E-001  8.74577727E-001  7.50114829E-001
Al  8.75801031E-001  7.50856055E-001  8.76472034E-001
Al  7.51014543E-001  8.75385416E-001  8.74911305E-001
K_POINTS automatic
2 2 2 1 1 1
