&CONTROL
restart_mode = 'from_scratch',
calculation = 'scf',
outdir = '/gpfs/bb/bxp912/scratch',
pseudo_dir = '/gpfs/bb/bxp912/pseudopotentials',
prefix = '2.48000000E-001',
etot_conv_thr = 1.00000000E-007,
forc_conv_thr = 1.00000000E-007,
nstep = 200,
tprnfor = .true.,
tstress = .true.,
disk_io = 'low',
/
&SYSTEM
ibrav = 14,
celldm(1) = 3.05001797E+001,
celldm(2) = 1.00000000E+000,
celldm(3) = 1.00000000E+000,
celldm(4) = 0.00000000E+000,
celldm(5) = 0.00000000E+000,
celldm(6) = 0.00000000E+000,
nat = 256,
ntyp = 1,
ecutwfc = 35,
ecutrho = 208,
occupations = 'smearing',
smearing = 'mv',
degauss = 5.00000007E-002,
/
&ELECTRONS
diagonalization = 'david',
mixing_mode = plain,
mixing_beta = 6.99999988E-001,
conv_thr = 1.00000000E-007,
/
&IONS
ion_dynamics = 'bfgs',
/
&CELL
cell_dynamics = 'bfgs',
press = 0.00000000E+000,
cell_factor = 2.00000000E+000,
/
ATOMIC_SPECIES
Al  2.69815390E+001  Al.pbe-n-kjpaw_psl.0.1.UPF
ATOMIC_POSITIONS crystal
Al  8.62976630E-006  2.88585911E-004  -1.88611722E-005
Al  1.24044085E-001  1.26314718E-001  4.29921766E-005
Al  1.25088395E-001  -2.44606147E-003  1.24452765E-001
Al  -2.49404142E-003  1.25379145E-001  1.25502087E-001
Al  1.15322204E-003  8.26130905E-005  2.50280750E-001
Al  1.25181295E-001  1.25059405E-001  2.49913463E-001
Al  1.26097028E-001  2.19523423E-004  3.75363708E-001
Al  -2.34316852E-003  1.25046240E-001  3.75240871E-001
Al  6.45884818E-004  3.34360349E-005  5.00127576E-001
Al  1.23850618E-001  1.26898375E-001  5.00008638E-001
Al  1.24584123E-001  3.54682158E-005  6.25622143E-001
Al  3.02046370E-004  1.25294626E-001  6.24974714E-001
Al  2.37685661E-003  8.44321827E-006  7.49991539E-001
Al  1.24976234E-001  1.24428938E-001  7.51268619E-001
Al  1.25627048E-001  1.78938491E-003  8.75033928E-001
Al  -5.01257100E-004  1.22595820E-001  8.77495174E-001
Al  -6.60083578E-004  2.50038366E-001  2.01543322E-004
Al  1.22671544E-001  3.74907685E-001  -5.82739346E-004
Al  1.27252027E-001  2.50068589E-001  1.26646146E-001
Al  8.12208632E-004  3.76393960E-001  1.24953642E-001
Al  1.51556893E-004  2.50278452E-001  2.48446103E-001
Al  1.26734591E-001  3.75211088E-001  2.48972939E-001
Al  1.24973501E-001  2.52181591E-001  3.72598499E-001
Al  -1.35174197E-004  3.73138250E-001  3.75241754E-001
Al  -2.15891722E-003  2.47605742E-001  4.99086730E-001
Al  1.23300946E-001  3.74864067E-001  4.97586910E-001
Al  1.24913799E-001  2.50530188E-001  6.27483423E-001
Al  -1.84787280E-005  3.74270869E-001  6.25695097E-001
Al  -6.26063906E-005  2.49125294E-001  7.47544280E-001
Al  1.22858170E-001  3.75067417E-001  7.48210967E-001
Al  1.25019441E-001  2.50046218E-001  8.72502199E-001
Al  -1.83386685E-003  3.75383286E-001  8.73216125E-001
Al  1.58398240E-004  4.99632803E-001  -2.38723198E-003
Al  1.26787423E-001  6.24958081E-001  -1.31286311E-003
Al  1.27203680E-001  5.00801825E-001  1.26503721E-001
Al  -5.45215464E-005  6.24585199E-001  1.25008451E-001
Al  2.23292349E-003  4.97559332E-001  2.47816948E-001
Al  1.25673632E-001  6.24991225E-001  2.50182213E-001
Al  1.27250379E-001  4.98248786E-001  3.74087509E-001
Al  -7.04685628E-004  6.22560372E-001  3.72505579E-001
Al  2.37244044E-004  5.00725355E-001  5.00022700E-001
Al  1.24905886E-001  6.25140404E-001  5.00326849E-001
Al  1.27389318E-001  4.99566754E-001  6.24441572E-001
Al  -2.55412042E-004  6.24710804E-001  6.26425785E-001
Al  -6.92756385E-005  4.99727769E-001  7.52478284E-001
Al  1.25018449E-001  6.24980340E-001  7.50494811E-001
Al  1.25009061E-001  4.99924956E-001  8.74774204E-001
Al  -4.25945625E-004  6.23926729E-001  8.76534461E-001
Al  2.34551004E-003  7.50439754E-001  2.53550043E-005
Al  1.24940048E-001  8.73016743E-001  1.66245001E-003
Al  1.25066738E-001  7.50324071E-001  1.23813066E-001
Al  1.62722906E-004  8.75201945E-001  1.23397767E-001
Al  -1.81164672E-005  7.51228279E-001  2.52363776E-001
Al  1.24917928E-001  8.75008483E-001  2.52164995E-001
Al  1.24124636E-001  7.49822513E-001  3.73076163E-001
Al  1.16349310E-003  8.72500084E-001  3.75026952E-001
Al  2.48008833E-005  7.49991374E-001  5.00441680E-001
Al  1.24173213E-001  8.72669283E-001  5.02316640E-001
Al  1.24970092E-001  7.47710352E-001  6.27043732E-001
Al  -2.49969113E-003  8.73291716E-001  6.24490097E-001
Al  5.93374346E-004  7.52437169E-001  7.52494040E-001
Al  1.25045414E-001  8.72732444E-001  7.50023132E-001
Al  1.25067333E-001  7.47789092E-001  8.75786711E-001
Al  -2.33659174E-003  8.72630808E-001  8.74183003E-001
Al  2.49852894E-001  1.11892652E-004  -2.35491285E-003
Al  3.76503961E-001  1.27278940E-001  7.95137104E-005
Al  3.75019222E-001  -2.02559652E-003  1.27491582E-001
Al  2.50308042E-001  1.24799252E-001  1.24379553E-001
Al  2.51597644E-001  -1.92576577E-005  2.48747190E-001
Al  3.73037679E-001  1.27472847E-001  2.51314552E-001
Al  3.77128914E-001  2.02463109E-003  3.73520331E-001
Al  2.52126160E-001  1.24915998E-001  3.76694696E-001
Al  2.48926339E-001  -2.44118826E-005  4.99863464E-001
Al  3.75113235E-001  1.25215644E-001  5.02389879E-001
Al  3.75088601E-001  -2.46604212E-003  6.25112849E-001
Al  2.47527827E-001  1.24981517E-001  6.26102742E-001
Al  2.51618449E-001  -2.13475990E-003  7.49220336E-001
Al  3.75368039E-001  1.24644755E-001  7.48511191E-001
Al  3.75018108E-001  -1.87748499E-003  8.74972078E-001
Al  2.52249098E-001  1.24868971E-001  8.75306467E-001
Al  2.50395734E-001  2.49966566E-001  -8.38730075E-006
Al  3.76202326E-001  3.74538525E-001  -1.09926511E-003
Al  3.73112223E-001  2.48669455E-001  1.27449338E-001
Al  2.52099219E-001  3.74534915E-001  1.24114007E-001
Al  2.51466243E-001  2.49313033E-001  2.49215926E-001
Al  3.74387860E-001  3.74974584E-001  2.47910237E-001
Al  3.77347939E-001  2.50018140E-001  3.77083676E-001
Al  2.50693607E-001  3.75993694E-001  3.74898667E-001
Al  2.49066429E-001  2.52456287E-001  4.98035567E-001
Al  3.72575550E-001  3.75225489E-001  4.97990660E-001
Al  3.75018316E-001  2.50896965E-001  6.24159821E-001
Al  2.50093456E-001  3.75718017E-001  6.24919657E-001
Al  2.47938605E-001  2.50241480E-001  7.49945407E-001
Al  3.74318524E-001  3.77239549E-001  7.49306295E-001
Al  3.77060183E-001  2.48052065E-001  8.75181721E-001
Al  2.50275468E-001  3.72636188E-001  8.74830753E-001
Al  2.49964816E-001  4.98464889E-001  -2.27940787E-003
Al  3.77399780E-001  6.24991627E-001  2.14453105E-004
Al  3.73921452E-001  5.00018306E-001  1.24991590E-001
Al  2.50405053E-001  6.24902027E-001  1.22504412E-001
Al  2.51682610E-001  5.00026499E-001  2.51419233E-001
Al  3.77296072E-001  6.27491358E-001  2.52458481E-001
Al  3.76906200E-001  4.97621233E-001  3.75008370E-001
Al  2.49978178E-001  6.26016256E-001  3.75536524E-001
Al  2.49274151E-001  4.99040072E-001  5.02441742E-001
Al  3.72506858E-001  6.24943567E-001  5.00023738E-001
Al  3.74731631E-001  5.00018802E-001  6.25095832E-001
Al  2.49315074E-001  6.25594783E-001  6.23122248E-001
Al  2.48655467E-001  4.97518711E-001  7.50117154E-001
Al  3.74931224E-001  6.27425219E-001  7.47504210E-001
Al  3.72575663E-001  4.97668195E-001  8.72500718E-001
Al  2.48295782E-001  6.24981612E-001  8.77394005E-001
Al  2.51101588E-001  7.51473298E-001  -1.83933293E-003
Al  3.77368305E-001  8.77274698E-001  2.47770471E-003
Al  3.74675022E-001  7.48935608E-001  1.27499961E-001
Al  2.49831484E-001  8.77056729E-001  1.25987622E-001
Al  2.50049635E-001  7.50252690E-001  2.48639211E-001
Al  3.74981734E-001  8.75086489E-001  2.50245948E-001
Al  3.74965242E-001  7.49911031E-001  3.74692683E-001
Al  2.49981768E-001  8.77361318E-001  3.74832704E-001
Al  2.50640398E-001  7.50609637E-001  4.99991509E-001
Al  3.74962198E-001  8.77443642E-001  5.00073821E-001
Al  3.74885430E-001  7.49482070E-001  6.25008386E-001
Al  2.49945008E-001  8.75498858E-001  6.26830847E-001
Al  2.50779667E-001  7.52487112E-001  7.49980262E-001
Al  3.75138604E-001  8.74972559E-001  7.50301607E-001
Al  3.74867590E-001  7.50071232E-001  8.74960160E-001
Al  2.49981853E-001  8.72877370E-001  8.72697811E-001
Al  5.00042224E-001  -3.34211386E-004  6.26965424E-004
Al  6.24810235E-001  1.26735633E-001  2.05701141E-003
Al  6.25054497E-001  1.24032931E-004  1.25063755E-001
Al  4.97918064E-001  1.24957107E-001  1.25008720E-001
Al  4.97732622E-001  1.79639615E-003  2.48077273E-001
Al  6.24927047E-001  1.25444188E-001  2.50066365E-001
Al  6.24875690E-001  -2.17287967E-004  3.74031516E-001
Al  5.00009406E-001  1.22503875E-001  3.76494023E-001
Al  4.99720221E-001  -1.96974580E-004  4.98922116E-001
Al  6.24979680E-001  1.22515359E-001  5.00009083E-001
Al  6.24846114E-001  2.11139777E-005  6.25009206E-001
Al  5.00283834E-001  1.26690954E-001  6.24991546E-001
Al  4.98668083E-001  3.10938148E-005  7.52102002E-001
Al  6.24941752E-001  1.25180532E-001  7.47596147E-001
Al  6.26237036E-001  -1.82099292E-003  8.72681840E-001
Al  4.99916284E-001  1.27489398E-001  8.75311641E-001
Al  4.97657045E-001  2.49950578E-001  3.81017085E-005
Al  6.27485705E-001  3.74655884E-001  1.11350518E-004
Al  6.26939660E-001  2.50123447E-001  1.25297211E-001
Al  5.00467173E-001  3.74962687E-001  1.24849860E-001
Al  5.00025486E-001  2.49595226E-001  2.49944727E-001
Al  6.25573842E-001  3.77270937E-001  2.52133301E-001
Al  6.25034504E-001  2.50562162E-001  3.75018375E-001
Al  5.02120188E-001  3.72695432E-001  3.77469667E-001
Al  5.00065249E-001  2.51771135E-001  5.00634713E-001
Al  6.25605025E-001  3.72545534E-001  5.00150150E-001
Al  6.25981132E-001  2.51736219E-001  6.24981734E-001
Al  5.02453287E-001  3.74139738E-001  6.26395319E-001
Al  5.00026816E-001  2.50040769E-001  7.51357696E-001
Al  6.24990380E-001  3.72591860E-001  7.51593496E-001
Al  6.25146280E-001  2.47643888E-001  8.75019959E-001
Al  4.97500001E-001  3.74927508E-001  8.74230293E-001
Al  4.97556625E-001  5.02023783E-001  -3.94579387E-004
Al  6.25842673E-001  6.27180490E-001  2.47521213E-004
Al  6.27216550E-001  4.99409722E-001  1.25839746E-001
Al  5.00220372E-001  6.23558238E-001  1.24294524E-001
Al  5.02478108E-001  5.00662477E-001  2.49991616E-001
Al  6.26868876E-001  6.25019022E-001  2.47613501E-001
Al  6.23354585E-001  4.97890231E-001  3.77399882E-001
Al  5.00473201E-001  6.24791450E-001  3.74855162E-001
Al  4.99244711E-001  5.01741564E-001  5.00461872E-001
Al  6.22522663E-001  6.27397479E-001  5.00132739E-001
Al  6.22544729E-001  4.97726739E-001  6.26444178E-001
Al  5.00418044E-001  6.25671432E-001  6.27211801E-001
Al  5.00019654E-001  5.00193713E-001  7.49948132E-001
Al  6.27297294E-001  6.25142003E-001  7.50017551E-001
Al  6.23173386E-001  5.00028832E-001  8.74951184E-001
Al  4.99223681E-001  6.25105398E-001  8.74574913E-001
Al  4.99855939E-001  7.50286989E-001  -2.49148789E-003
Al  6.23374518E-001  8.75058541E-001  1.80374416E-003
Al  6.27023211E-001  7.49116163E-001  1.24590965E-001
Al  4.97635143E-001  8.75025961E-001  1.27341257E-001
Al  5.01951284E-001  7.49004184E-001  2.47503054E-001
Al  6.24059491E-001  8.72500722E-001  2.49941166E-001
Al  6.22850061E-001  7.50784623E-001  3.75270888E-001
Al  4.99957751E-001  8.74931139E-001  3.73700383E-001
Al  4.99903170E-001  7.48846728E-001  4.98146675E-001
Al  6.25841411E-001  8.74964683E-001  5.00149232E-001
Al  6.25472619E-001  7.50643963E-001  6.27131909E-001
Al  5.01648632E-001  8.74508017E-001  6.24991099E-001
Al  5.00123165E-001  7.49981195E-001  7.48320861E-001
Al  6.27499787E-001  8.75070533E-001  7.48484089E-001
Al  6.24388111E-001  7.52296754E-001  8.73900088E-001
Al  5.01962021E-001  8.75037651E-001  8.75018515E-001
Al  7.50414597E-001  6.03535354E-004  -2.25769609E-003
Al  8.72544123E-001  1.26725172E-001  -2.62521090E-004
Al  8.77177613E-001  2.36913515E-003  1.24900033E-001
Al  7.52374772E-001  1.26601167E-001  1.26671323E-001
Al  7.50179807E-001  -9.55138864E-005  2.49919227E-001
Al  8.74821412E-001  1.24715932E-001  2.49960107E-001
Al  8.77461888E-001  2.38917426E-004  3.75633249E-001
Al  7.48520251E-001  1.24751120E-001  3.72832932E-001
Al  7.52386267E-001  -1.22156743E-004  5.00101371E-001
Al  8.75036759E-001  1.23257684E-001  4.98876487E-001
Al  8.72810419E-001  2.37548922E-003  6.25250510E-001
Al  7.49946427E-001  1.25263982E-001  6.24136243E-001
Al  7.49943211E-001  2.09380030E-003  7.48776660E-001
Al  8.75178801E-001  1.24291336E-001  7.49980352E-001
Al  8.75329004E-001  1.77619606E-003  8.74980225E-001
Al  7.50408665E-001  1.26310368E-001  8.75832415E-001
Al  7.50352067E-001  2.49981682E-001  2.46820587E-003
Al  8.76540739E-001  3.77488027E-001  -1.72995846E-003
Al  8.74197461E-001  2.48260954E-001  1.22629949E-001
Al  7.50018720E-001  3.76273803E-001  1.27456292E-001
Al  7.50276417E-001  2.49124159E-001  2.50642908E-001
Al  8.74949180E-001  3.74773127E-001  2.51313111E-001
Al  8.74112290E-001  2.50166990E-001  3.72814820E-001
Al  7.49902876E-001  3.75018257E-001  3.75472047E-001
Al  7.51502500E-001  2.50018847E-001  4.98027811E-001
Al  8.75107570E-001  3.74844373E-001  5.00008568E-001
Al  8.73242764E-001  2.48756677E-001  6.25456595E-001
Al  7.48861256E-001  3.74979740E-001  6.25394439E-001
Al  7.52361876E-001  2.50462381E-001  7.51936665E-001
Al  8.74057468E-001  3.77197196E-001  7.50122330E-001
Al  8.75156216E-001  2.50211606E-001  8.75278485E-001
Al  7.48369001E-001  3.76682834E-001  8.72711845E-001
Al  7.50088122E-001  4.98707658E-001  -1.66096231E-004
Al  8.73739756E-001  6.25019475E-001  -1.85394841E-005
Al  8.75784209E-001  5.00065061E-001  1.24929849E-001
Al  7.50191131E-001  6.24991198E-001  1.26351998E-001
Al  7.47796600E-001  5.02467323E-001  2.52237574E-001
Al  8.75860105E-001  6.25400922E-001  2.50029606E-001
Al  8.76518511E-001  4.99408015E-001  3.76057175E-001
Al  7.52283588E-001  6.24978260E-001  3.74990778E-001
Al  7.51020098E-001  5.00201103E-001  5.01007433E-001
Al  8.74024654E-001  6.24960642E-001  4.97522268E-001
Al  8.75018206E-001  5.00417744E-001  6.25065795E-001
Al  7.48281543E-001  6.24106897E-001  6.25018765E-001
Al  7.49640546E-001  5.01661575E-001  7.49981299E-001
Al  8.74854213E-001  6.24548250E-001  7.49830108E-001
Al  8.77297962E-001  5.00932652E-001  8.74976577E-001
Al  7.51875935E-001  6.26812562E-001  8.77445798E-001
Al  7.50421149E-001  7.49072568E-001  1.21983394E-003
Al  8.74828924E-001  8.75215498E-001  -1.03405530E-003
Al  8.74811372E-001  7.49725287E-001  1.24781071E-001
Al  7.49979993E-001  8.74682032E-001  1.23819357E-001
Al  7.50153046E-001  7.50763858E-001  2.49752204E-001
Al  8.72670267E-001  8.75577232E-001  2.49982289E-001
Al  8.77199213E-001  7.50368127E-001  3.74921207E-001
Al  7.50525929E-001  8.74622996E-001  3.72914167E-001
Al  7.51500318E-001  7.50008582E-001  5.00071108E-001
Al  8.74947781E-001  8.73745045E-001  5.02365915E-001
Al  8.77427575E-001  7.52332669E-001  6.24991570E-001
Al  7.50695828E-001  8.74668109E-001  6.24961042E-001
Al  7.47815757E-001  7.48523626E-001  7.50026902E-001
Al  8.74900920E-001  8.74804097E-001  7.50061730E-001
Al  8.74619962E-001  7.49407334E-001  8.77173074E-001
Al  7.50737940E-001  8.74929294E-001  8.75201482E-001
K_POINTS automatic
2 2 2 1 1 1
