&CONTROL
restart_mode = 'from_scratch',
calculation = 'scf',
outdir = '/gpfs/bb/bxp912/scratch',
pseudo_dir = '/gpfs/bb/bxp912/pseudopotentials',
prefix = '2.48000000E-001',
etot_conv_thr = 1.00000000E-007,
forc_conv_thr = 1.00000000E-007,
nstep = 200,
tprnfor = .true.,
tstress = .true.,
disk_io = 'low',
/
&SYSTEM
ibrav = 14,
celldm(1) = 3.05001797E+001,
celldm(2) = 1.00000000E+000,
celldm(3) = 1.00000000E+000,
celldm(4) = 0.00000000E+000,
celldm(5) = 0.00000000E+000,
celldm(6) = 0.00000000E+000,
nat = 256,
ntyp = 1,
ecutwfc = 35,
ecutrho = 208,
occupations = 'smearing',
smearing = 'mv',
degauss = 5.00000007E-002,
/
&ELECTRONS
diagonalization = 'david',
mixing_mode = plain,
mixing_beta = 6.99999988E-001,
conv_thr = 1.00000000E-007,
/
&IONS
ion_dynamics = 'bfgs',
/
&CELL
cell_dynamics = 'bfgs',
press = 0.00000000E+000,
cell_factor = 2.00000000E+000,
/
ATOMIC_SPECIES
Al  2.69815390E+001  Al.pbe-n-kjpaw_psl.0.1.UPF
ATOMIC_POSITIONS crystal
Al  -1.09095742E-004  -3.23477945E-004  -1.69866176E-003
Al  1.22727695E-001  1.24665308E-001  7.42566998E-004
Al  1.24991240E-001  -1.37662479E-003  1.24845933E-001
Al  -3.48289014E-005  1.22760463E-001  1.26473526E-001
Al  -2.12412519E-003  4.49274276E-004  2.50080139E-001
Al  1.22603653E-001  1.22809367E-001  2.49919375E-001
Al  1.26350005E-001  -8.44676728E-004  3.76292772E-001
Al  7.60308151E-005  1.24207510E-001  3.75083896E-001
Al  -2.40753480E-003  1.98046733E-003  4.99976689E-001
Al  1.25107582E-001  1.25142297E-001  5.01915011E-001
Al  1.24414113E-001  1.96566824E-003  6.25056441E-001
Al  1.81515752E-005  1.24755676E-001  6.23288535E-001
Al  -3.36744420E-005  7.80995754E-004  7.49768501E-001
Al  1.25047979E-001  1.24631734E-001  7.52241560E-001
Al  1.24910319E-001  7.31372839E-005  8.72839859E-001
Al  -6.85267564E-005  1.24671292E-001  8.73325747E-001
Al  1.72373981E-003  2.48468008E-001  -2.14460636E-003
Al  1.25211834E-001  3.76269377E-001  1.39608728E-003
Al  1.24887241E-001  2.49416834E-001  1.24913890E-001
Al  -9.02516531E-006  3.77235016E-001  1.24805622E-001
Al  8.70958589E-005  2.49527325E-001  2.51365868E-001
Al  1.24791348E-001  3.76409251E-001  2.50581621E-001
Al  1.24792255E-001  2.49899756E-001  3.74104312E-001
Al  6.39449125E-005  3.72562007E-001  3.74746176E-001
Al  -3.17660176E-005  2.50211646E-001  5.00018880E-001
Al  1.24942857E-001  3.74973149E-001  5.01756871E-001
Al  1.25891109E-001  2.49841803E-001  6.26184963E-001
Al  4.84771362E-004  3.74719983E-001  6.24968235E-001
Al  1.62909476E-003  2.50109422E-001  7.49971808E-001
Al  1.25021841E-001  3.75008429E-001  7.47507670E-001
Al  1.24991495E-001  2.49812905E-001  8.73269014E-001
Al  2.12601987E-003  3.76979338E-001  8.75144115E-001
Al  1.02922199E-003  5.01293997E-001  -1.32331208E-003
Al  1.25779491E-001  6.24950026E-001  -2.02668533E-003
Al  1.22557427E-001  5.00502834E-001  1.25046300E-001
Al  1.92426099E-003  6.25134639E-001  1.26106116E-001
Al  -2.33383778E-003  4.99951253E-001  2.49951718E-001
Al  1.24669524E-001  6.24959977E-001  2.49824030E-001
Al  1.25401515E-001  4.99940538E-001  3.76906868E-001
Al  1.47697867E-003  6.24882232E-001  3.74331326E-001
Al  -8.75347397E-006  5.01009466E-001  4.99939633E-001
Al  1.25026326E-001  6.25008586E-001  5.00045380E-001
Al  1.26458496E-001  5.00289083E-001  6.22580652E-001
Al  -4.74277336E-005  6.24981735E-001  6.24756745E-001
Al  3.97528112E-004  4.97713376E-001  7.52486838E-001
Al  1.25258713E-001  6.23572717E-001  7.51467320E-001
Al  1.26538156E-001  4.98621253E-001  8.75674979E-001
Al  -8.10010138E-004  6.25110480E-001  8.74967497E-001
Al  1.26302351E-004  7.49981828E-001  1.95946696E-003
Al  1.25214563E-001  8.74981667E-001  1.29673765E-003
Al  1.22616800E-001  7.48187058E-001  1.24955964E-001
Al  2.49500309E-003  8.72973205E-001  1.25071319E-001
Al  8.37277914E-006  7.49841527E-001  2.49234677E-001
Al  1.24197891E-001  8.75981334E-001  2.50169343E-001
Al  1.23730373E-001  7.49841052E-001  3.77343603E-001
Al  1.34543361E-004  8.73463883E-001  3.75089942E-001
Al  2.07210814E-004  7.49981758E-001  5.02457782E-001
Al  1.23271886E-001  8.75184169E-001  4.99981718E-001
Al  1.23860766E-001  7.48386492E-001  6.24981476E-001
Al  -2.37779107E-003  8.76922359E-001  6.27274778E-001
Al  -1.92388025E-003  7.52387467E-001  7.50142055E-001
Al  1.25645565E-001  8.75124998E-001  7.49818210E-001
Al  1.23799613E-001  7.49619067E-001  8.75596093E-001
Al  -2.49997142E-003  8.75721172E-001  8.74838635E-001
Al  2.48242456E-001  1.01066792E-004  5.52212602E-004
Al  3.77386150E-001  1.24956759E-001  6.49029299E-004
Al  3.76190433E-001  1.04272264E-004  1.23814993E-001
Al  2.48261563E-001  1.27324105E-001  1.23822736E-001
Al  2.49619357E-001  -5.54566431E-004  2.47763179E-001
Al  3.74375836E-001  1.27499382E-001  2.48551021E-001
Al  3.74282292E-001  -1.89425954E-004  3.74867698E-001
Al  2.49770202E-001  1.24979879E-001  3.74823023E-001
Al  2.50009099E-001  1.94344076E-005  4.98718948E-001
Al  3.77233238E-001  1.27059019E-001  5.01775806E-001
Al  3.76204429E-001  -2.00733239E-003  6.27331336E-001
Al  2.48670388E-001  1.24981081E-001  6.24633856E-001
Al  2.50021886E-001  1.59668128E-004  7.48037301E-001
Al  3.75065773E-001  1.24613319E-001  7.48600116E-001
Al  3.75019552E-001  -2.20443996E-003  8.74221035E-001
Al  2.51830741E-001  1.23371959E-001  8.77271790E-001
Al  2.50022878E-001  2.50037568E-001  -2.07782331E-003
Al  3.72519807E-001  3.75021427E-001  8.77506766E-004
Al  3.76585140E-001  2.49932051E-001  1.24956340E-001
Al  2.47877711E-001  3.75457950E-001  1.25291964E-001
Al  2.48855938E-001  2.50008383E-001  2.50390751E-001
Al  3.76617652E-001  3.74944872E-001  2.49212915E-001
Al  3.72836014E-001  2.49981801E-001  3.75731449E-001
Al  2.51860495E-001  3.73940297E-001  3.72508992E-001
Al  2.49252101E-001  2.50811721E-001  5.01638867E-001
Al  3.75956583E-001  3.74854857E-001  5.02481342E-001
Al  3.75604048E-001  2.50152381E-001  6.27252645E-001
Al  2.47654872E-001  3.75057777E-001  6.25065134E-001
Al  2.52148572E-001  2.48752560E-001  7.50184094E-001
Al  3.74425919E-001  3.75019127E-001  7.51905477E-001
Al  3.73482340E-001  2.52052531E-001  8.75098990E-001
Al  2.48649742E-001  3.77422846E-001  8.73406412E-001
Al  2.49037887E-001  5.02460437E-001  -2.51232340E-004
Al  3.74500968E-001  6.24929779E-001  -1.34670175E-003
Al  3.74978414E-001  5.00531277E-001  1.23303198E-001
Al  2.50171824E-001  6.25039170E-001  1.26371067E-001
Al  2.50788270E-001  4.99871538E-001  2.47549807E-001
Al  3.75154016E-001  6.25868145E-001  2.48225342E-001
Al  3.75174541E-001  4.99052845E-001  3.75027428E-001
Al  2.50025990E-001  6.25020184E-001  3.76522508E-001
Al  2.48706699E-001  4.97623476E-001  4.97904051E-001
Al  3.76000365E-001  6.26275570E-001  4.97519295E-001
Al  3.75592207E-001  4.98300623E-001  6.23295229E-001
Al  2.50018832E-001  6.25661493E-001  6.25062056E-001
Al  2.51987448E-001  4.97524751E-001  7.50020204E-001
Al  3.77440068E-001  6.24708365E-001  7.50583901E-001
Al  3.75406415E-001  4.99969964E-001  8.74814758E-001
Al  2.50008812E-001  6.22750165E-001  8.75035422E-001
Al  2.48658812E-001  7.49301721E-001  -1.37756092E-003
Al  3.75188123E-001  8.72702088E-001  -9.59175173E-004
Al  3.75123033E-001  7.48807812E-001  1.27498246E-001
Al  2.51959194E-001  8.74990941E-001  1.24588194E-001
Al  2.50407047E-001  7.49669357E-001  2.50018506E-001
Al  3.74991279E-001  8.73096818E-001  2.52186956E-001
Al  3.75030087E-001  7.49788908E-001  3.77422255E-001
Al  2.50008426E-001  8.76135142E-001  3.75704810E-001
Al  2.48722133E-001  7.49763246E-001  4.97526199E-001
Al  3.74956886E-001  8.74926048E-001  4.99907764E-001
Al  3.73763289E-001  7.49991630E-001  6.24979675E-001
Al  2.50017528E-001  8.72500131E-001  6.23595011E-001
Al  2.52431577E-001  7.48736038E-001  7.47541187E-001
Al  3.77261309E-001  8.74980113E-001  7.47896363E-001
Al  3.74981868E-001  7.50900156E-001  8.74840617E-001
Al  2.51597821E-001  8.77497387E-001  8.76308083E-001
Al  4.99353307E-001  -7.16980688E-004  -9.56652548E-006
Al  6.25247985E-001  1.24727520E-001  1.70934142E-003
Al  6.24978352E-001  1.33735516E-003  1.25332286E-001
Al  5.01293061E-001  1.24958425E-001  1.26109031E-001
Al  4.99143109E-001  2.49677520E-003  2.49098603E-001
Al  6.25009222E-001  1.22707486E-001  2.47922125E-001
Al  6.22987945E-001  -1.92897903E-003  3.74991202E-001
Al  5.02406434E-001  1.26299855E-001  3.73950342E-001
Al  5.00978023E-001  2.10670831E-003  5.00146834E-001
Al  6.23173848E-001  1.22683709E-001  4.97505495E-001
Al  6.23608337E-001  2.40439427E-003  6.27423985E-001
Al  5.01255787E-001  1.24089902E-001  6.25550965E-001
Al  4.98971895E-001  7.82363125E-004  7.47647304E-001
Al  6.25395509E-001  1.22502283E-001  7.49216023E-001
Al  6.24759692E-001  7.73053165E-004  8.72901446E-001
Al  4.99841368E-001  1.24848189E-001  8.75058031E-001
Al  5.00113414E-001  2.47558465E-001  -2.13734812E-003
Al  6.26904937E-001  3.73010995E-001  -2.30343875E-003
Al  6.24990511E-001  2.49543077E-001  1.24991563E-001
Al  4.98784513E-001  3.73927309E-001  1.24982543E-001
Al  5.00030582E-001  2.49761621E-001  2.48801159E-001
Al  6.24258404E-001  3.75008933E-001  2.49376402E-001
Al  6.25225721E-001  2.49739627E-001  3.75349137E-001
Al  5.00473566E-001  3.74918911E-001  3.72608660E-001
Al  4.99216617E-001  2.52469035E-001  4.99981860E-001
Al  6.25034786E-001  3.74991267E-001  5.00018524E-001
Al  6.24201023E-001  2.51554277E-001  6.24971446E-001
Al  5.00021563E-001  3.75432322E-001  6.24021279E-001
Al  4.97511581E-001  2.49991270E-001  7.50946670E-001
Al  6.25035699E-001  3.73971443E-001  7.50627014E-001
Al  6.23953064E-001  2.48426724E-001  8.75946583E-001
Al  5.00177574E-001  3.77005147E-001  8.76874043E-001
Al  4.99991494E-001  4.99991247E-001  -2.33829070E-003
Al  6.25162279E-001  6.23969893E-001  -1.52069818E-003
Al  6.25777727E-001  4.99291760E-001  1.25158507E-001
Al  4.99852091E-001  6.26535465E-001  1.22994678E-001
Al  4.99865992E-001  5.00309572E-001  2.50008415E-001
Al  6.23546165E-001  6.24981685E-001  2.51628647E-001
Al  6.24849425E-001  4.97518483E-001  3.77413426E-001
Al  5.00077422E-001  6.22970000E-001  3.76221780E-001
Al  5.02379478E-001  4.98411665E-001  4.99962822E-001
Al  6.25151704E-001  6.24925732E-001  5.00021009E-001
Al  6.25025359E-001  4.99281600E-001  6.27306763E-001
Al  4.98260908E-001  6.24964097E-001  6.24579177E-001
Al  5.00096511E-001  4.98102127E-001  7.52495947E-001
Al  6.23092591E-001  6.24720291E-001  7.49975079E-001
Al  6.24937750E-001  4.99200009E-001  8.75343138E-001
Al  4.97589160E-001  6.25072086E-001  8.76826879E-001
Al  5.00008895E-001  7.52413052E-001  1.20553588E-004
Al  6.25291976E-001  8.74636232E-001  -3.44286072E-004
Al  6.24980743E-001  7.51359094E-001  1.25008933E-001
Al  5.02328268E-001  8.75632247E-001  1.25450612E-001
Al  5.02247665E-001  7.50018905E-001  2.49698419E-001
Al  6.25054683E-001  8.77351756E-001  2.48750166E-001
Al  6.25119822E-001  7.49964193E-001  3.75251399E-001
Al  5.00249323E-001  8.75033331E-001  3.74981576E-001
Al  5.00918077E-001  7.50048588E-001  5.02125585E-001
Al  6.24799844E-001  8.74954002E-001  5.02466776E-001
Al  6.24739870E-001  7.50625908E-001  6.25018256E-001
Al  4.98879397E-001  8.74191525E-001  6.26059329E-001
Al  4.99951814E-001  7.52497401E-001  7.47966195E-001
Al  6.24965838E-001  8.75022928E-001  7.47678430E-001
Al  6.24969177E-001  7.48845204E-001  8.75076487E-001
Al  5.00008479E-001  8.76580589E-001  8.74979955E-001
Al  7.47572760E-001  -1.67937568E-003  -1.17702363E-003
Al  8.75590214E-001  1.24461574E-001  1.45424248E-004
Al  8.74963230E-001  1.82017837E-005  1.23842271E-001
Al  7.49945542E-001  1.22542981E-001  1.22626414E-001
Al  7.49991065E-001  8.76277901E-006  2.49833429E-001
Al  8.75881075E-001  1.24981861E-001  2.49975597E-001
Al  8.73620598E-001  2.17735838E-003  3.75408561E-001
Al  7.47506767E-001  1.25382471E-001  3.74634814E-001
Al  7.50093095E-001  -1.87816467E-004  5.00395757E-001
Al  8.77492566E-001  1.22871118E-001  4.99980038E-001
Al  8.75852380E-001  -1.12211791E-003  6.24613964E-001
Al  7.50612730E-001  1.27118579E-001  6.25386770E-001
Al  7.52266804E-001  -1.71802686E-003  7.49001226E-001
Al  8.75105196E-001  1.26735400E-001  7.49897342E-001
Al  8.77460295E-001  2.26209631E-003  8.75206293E-001
Al  7.49991501E-001  1.23930962E-001  8.72658441E-001
Al  7.49763043E-001  2.50180857E-001  1.81159298E-005
Al  8.76424141E-001  3.75467023E-001  -2.26890373E-003
Al  8.75959497E-001  2.51338878E-001  1.27441396E-001
Al  7.49947567E-001  3.76366264E-001  1.26289102E-001
Al  7.50391625E-001  2.50724003E-001  2.47585961E-001
Al  8.76259483E-001  3.76800075E-001  2.51265209E-001
Al  8.74758159E-001  2.50678217E-001  3.72504178E-001
Al  7.50526569E-001  3.75115190E-001  3.75420695E-001
Al  7.49943809E-001  2.47736414E-001  4.99681578E-001
Al  8.75070121E-001  3.77056022E-001  4.99811939E-001
Al  8.74359490E-001  2.50098013E-001  6.27127165E-001
Al  7.50019489E-001  3.76683731E-001  6.23143480E-001
Al  7.50018191E-001  2.50050330E-001  7.49939729E-001
Al  8.75224367E-001  3.74931966E-001  7.49938459E-001
Al  8.72831038E-001  2.50044273E-001  8.74098301E-001
Al  7.49144156E-001  3.74009657E-001  8.75878212E-001
Al  7.50526690E-001  5.00360738E-001  2.42419666E-003
Al  8.75450240E-001  6.26792663E-001  1.09962389E-003
Al  8.77168734E-001  5.02486461E-001  1.25752869E-001
Al  7.49956828E-001  6.25022705E-001  1.23461813E-001
Al  7.47869477E-001  4.99981671E-001  2.48321126E-001
Al  8.74991459E-001  6.25951705E-001  2.49954896E-001
Al  8.74291137E-001  4.99043473E-001  3.77499847E-001
Al  7.47646460E-001  6.24785014E-001  3.72645259E-001
Al  7.51572660E-001  5.01265896E-001  4.99981856E-001
Al  8.77455925E-001  6.25152120E-001  5.00518755E-001
Al  8.74714339E-001  5.00352698E-001  6.27221765E-001
Al  7.47688823E-001  6.25078297E-001  6.25018226E-001
Al  7.51109899E-001  4.97512102E-001  7.49717984E-001
Al  8.74991551E-001  6.27309663E-001  7.50481294E-001
Al  8.75043593E-001  5.02493041E-001  8.75020122E-001
Al  7.49991502E-001  6.26579453E-001  8.74190644E-001
Al  7.49784363E-001  7.50243033E-001  2.13317827E-003
Al  8.76089267E-001  8.74970278E-001  2.34421259E-003
Al  8.72502610E-001  7.50210396E-001  1.25900605E-001
Al  7.49540037E-001  8.74221692E-001  1.26494570E-001
Al  7.48099274E-001  7.50696359E-001  2.48851955E-001
Al  8.73967773E-001  8.77498974E-001  2.50660765E-001
Al  8.75351583E-001  7.50059443E-001  3.74991104E-001
Al  7.48176396E-001  8.74849136E-001  3.74905002E-001
Al  7.47553844E-001  7.48315709E-001  4.98209682E-001
Al  8.75148820E-001  8.72919548E-001  5.00247496E-001
Al  8.74980934E-001  7.49280900E-001  6.24068654E-001
Al  7.47503059E-001  8.74131993E-001  6.25008432E-001
Al  7.49672744E-001  7.49907171E-001  7.49389872E-001
Al  8.76461743E-001  8.73077339E-001  7.51560924E-001
Al  8.72511639E-001  7.48656072E-001  8.74991240E-001
Al  7.48623345E-001  8.74508387E-001  8.72630509E-001
K_POINTS automatic
2 2 2 1 1 1
