&CONTROL
restart_mode = 'from_scratch',
calculation = 'scf',
outdir = '/gpfs/bb/bxp912/scratch',
pseudo_dir = '/gpfs/bb/bxp912/pseudopotentials',
prefix = '2.48000000E-001',
etot_conv_thr = 1.00000000E-007,
forc_conv_thr = 1.00000000E-007,
nstep = 200,
tprnfor = .true.,
tstress = .true.,
disk_io = 'low',
/
&SYSTEM
ibrav = 14,
celldm(1) = 3.05001797E+001,
celldm(2) = 1.00000000E+000,
celldm(3) = 1.00000000E+000,
celldm(4) = 0.00000000E+000,
celldm(5) = 0.00000000E+000,
celldm(6) = 0.00000000E+000,
nat = 256,
ntyp = 1,
ecutwfc = 35,
ecutrho = 208,
occupations = 'smearing',
smearing = 'mv',
degauss = 5.00000007E-002,
/
&ELECTRONS
diagonalization = 'david',
mixing_mode = plain,
mixing_beta = 6.99999988E-001,
conv_thr = 1.00000000E-007,
/
&IONS
ion_dynamics = 'bfgs',
/
&CELL
cell_dynamics = 'bfgs',
press = 0.00000000E+000,
cell_factor = 2.00000000E+000,
/
ATOMIC_SPECIES
Al  2.69815390E+001  Al.pbe-n-kjpaw_psl.0.1.UPF
ATOMIC_POSITIONS crystal
Al  1.14565994E-003  1.28071381E-003  -1.79122888E-003
Al  1.23071942E-001  1.25533470E-001  1.86204181E-003
Al  1.24636851E-001  -1.24557686E-003  1.26485463E-001
Al  -8.84423507E-006  1.24708426E-001  1.23298161E-001
Al  -5.66533840E-004  -1.87872513E-005  2.49917067E-001
Al  1.25540719E-001  1.23526462E-001  2.50228489E-001
Al  1.27296035E-001  -2.21071158E-004  3.72514987E-001
Al  1.89238411E-005  1.26843415E-001  3.77073332E-001
Al  1.51974738E-004  -1.15310183E-003  5.02478683E-001
Al  1.25434897E-001  1.22827955E-001  5.00094127E-001
Al  1.24213078E-001  -2.34399641E-003  6.27258650E-001
Al  1.00417993E-004  1.24981214E-001  6.22544645E-001
Al  -3.22582752E-004  2.45959146E-005  7.49991429E-001
Al  1.22502293E-001  1.27482041E-001  7.47516333E-001
Al  1.25210105E-001  -3.37920821E-004  8.74896309E-001
Al  1.11486079E-003  1.24926797E-001  8.73077164E-001
Al  -2.45517483E-003  2.50194266E-001  6.96503808E-004
Al  1.23820165E-001  3.77457231E-001  3.78147112E-004
Al  1.25008844E-001  2.49962890E-001  1.25095821E-001
Al  -8.04577131E-004  3.75180002E-001  1.24912041E-001
Al  -4.13975864E-004  2.50009413E-001  2.50420002E-001
Al  1.27499777E-001  3.73072195E-001  2.52336346E-001
Al  1.23451566E-001  2.49522959E-001  3.75293792E-001
Al  2.01105790E-004  3.74948307E-001  3.75321480E-001
Al  1.38141431E-003  2.48168762E-001  4.97500211E-001
Al  1.26375919E-001  3.74982446E-001  5.01840623E-001
Al  1.24186431E-001  2.52489860E-001  6.25412515E-001
Al  2.30974525E-003  3.75315155E-001  6.22957575E-001
Al  -2.12141610E-004  2.49974988E-001  7.47614014E-001
Al  1.24971812E-001  3.72719701E-001  7.52430204E-001
Al  1.26248484E-001  2.48775701E-001  8.75143197E-001
Al  5.00802752E-005  3.77465382E-001  8.75251019E-001
Al  7.16484191E-005  5.01234742E-001  1.89947486E-003
Al  1.25096978E-001  6.23914903E-001  3.18261401E-005
Al  1.23522341E-001  4.97929604E-001  1.23775389E-001
Al  -8.60265738E-006  6.27189357E-001  1.23385745E-001
Al  -1.42214305E-003  5.02468474E-001  2.47652293E-001
Al  1.25217211E-001  6.25129593E-001  2.47647060E-001
Al  1.23685656E-001  4.99925373E-001  3.72505415E-001
Al  2.36910491E-003  6.24770539E-001  3.72786226E-001
Al  1.63751963E-003  5.01796743E-001  5.00008819E-001
Al  1.26192782E-001  6.27423695E-001  5.02499080E-001
Al  1.24981188E-001  4.99878255E-001  6.24656007E-001
Al  -1.83435785E-004  6.23098217E-001  6.23375265E-001
Al  -1.00666958E-003  5.00026636E-001  7.49867500E-001
Al  1.24475265E-001  6.24946515E-001  7.49786726E-001
Al  1.26151931E-001  5.01602859E-001  8.75018232E-001
Al  -8.43866981E-006  6.27476643E-001  8.72898959E-001
Al  1.97179090E-003  7.47641286E-001  -1.22982909E-003
Al  1.24941656E-001  8.75065094E-001  1.11879235E-003
Al  1.23881471E-001  7.49980387E-001  1.23189941E-001
Al  1.19206956E-003  8.76778165E-001  1.27327836E-001
Al  -2.49105577E-003  7.51384965E-001  2.50352399E-001
Al  1.25018173E-001  8.74567625E-001  2.50094824E-001
Al  1.25018739E-001  7.49958075E-001  3.74134056E-001
Al  2.48900663E-003  8.74980986E-001  3.74842791E-001
Al  -1.86839740E-005  7.47688572E-001  4.99981855E-001
Al  1.25082869E-001  8.75561680E-001  5.00792744E-001
Al  1.22535060E-001  7.51918418E-001  6.25018450E-001
Al  1.89177349E-003  8.75053549E-001  6.25008638E-001
Al  -2.76192739E-004  7.47538437E-001  7.50974081E-001
Al  1.27285870E-001  8.75571036E-001  7.51023062E-001
Al  1.24990339E-001  7.49981873E-001  8.77034675E-001
Al  -7.99683743E-004  8.74980852E-001  8.74855321E-001
Al  2.50397032E-001  -1.27991952E-003  5.04912778E-004
Al  3.73503343E-001  1.22583134E-001  6.78209996E-004
Al  3.75458897E-001  -2.38906572E-003  1.24850147E-001
Al  2.49979882E-001  1.25841557E-001  1.25022333E-001
Al  2.51834112E-001  -2.45010607E-003  2.50701765E-001
Al  3.75303773E-001  1.22961719E-001  2.49990760E-001
Al  3.75587856E-001  6.22151497E-004  3.75194130E-001
Al  2.48145434E-001  1.25663637E-001  3.77498154E-001
Al  2.47827963E-001  1.82482890E-005  4.98352467E-001
Al  3.74735323E-001  1.23305883E-001  5.00106132E-001
Al  3.74970023E-001  2.44779014E-003  6.26285410E-001
Al  2.51937562E-001  1.25052763E-001  6.24032189E-001
Al  2.50008520E-001  -9.17459936E-005  7.48237136E-001
Al  3.75408642E-001  1.24551562E-001  7.50149369E-001
Al  3.75543910E-001  -8.06733350E-005  8.74626090E-001
Al  2.50030992E-001  1.25009051E-001  8.72935911E-001
Al  2.52484738E-001  2.51784925E-001  -2.32923258E-003
Al  3.74981533E-001  3.76763865E-001  -2.26562671E-003
Al  3.74812936E-001  2.47610284E-001  1.25946127E-001
Al  2.50018063E-001  3.72503832E-001  1.24484470E-001
Al  2.49569254E-001  2.48110437E-001  2.49724643E-001
Al  3.74981792E-001  3.74908018E-001  2.51131071E-001
Al  3.73874958E-001  2.49020247E-001  3.76295726E-001
Al  2.50036531E-001  3.76401552E-001  3.74488914E-001
Al  2.49976920E-001  2.50566026E-001  5.00229511E-001
Al  3.74396844E-001  3.72503842E-001  4.98447827E-001
Al  3.76029336E-001  2.47848970E-001  6.25674784E-001
Al  2.49919395E-001  3.76508703E-001  6.23614874E-001
Al  2.52098838E-001  2.49971039E-001  7.49894276E-001
Al  3.76844429E-001  3.74426893E-001  7.48011204E-001
Al  3.73899957E-001  2.50793110E-001  8.75198545E-001
Al  2.50198757E-001  3.76274237E-001  8.77248607E-001
Al  2.50019937E-001  5.00342035E-001  2.58344440E-005
Al  3.74157063E-001  6.23312930E-001  -9.67595026E-004
Al  3.77134504E-001  5.01613634E-001  1.25530256E-001
Al  2.49287305E-001  6.25024466E-001  1.27024192E-001
Al  2.49648259E-001  4.99844092E-001  2.49980033E-001
Al  3.75935426E-001  6.25704326E-001  2.50153778E-001
Al  3.74934999E-001  4.99028935E-001  3.72722610E-001
Al  2.49976400E-001  6.22595057E-001  3.74973338E-001
Al  2.50008981E-001  5.00631704E-001  5.01291111E-001
Al  3.75409762E-001  6.22871715E-001  5.00308279E-001
Al  3.76396705E-001  5.00215332E-001  6.25505931E-001
Al  2.52029401E-001  6.27499993E-001  6.25044771E-001
Al  2.52135271E-001  5.00018752E-001  7.49762582E-001
Al  3.73236313E-001  6.26889261E-001  7.49753257E-001
Al  3.74286207E-001  5.00102790E-001  8.73619139E-001
Al  2.49802998E-001  6.25735115E-001  8.75439635E-001
Al  2.50008373E-001  7.50431552E-001  8.38867839E-006
Al  3.76071711E-001  8.72505140E-001  2.45346810E-003
Al  3.75068502E-001  7.50666880E-001  1.24794772E-001
Al  2.48542680E-001  8.73583586E-001  1.24939757E-001
Al  2.51250653E-001  7.51157804E-001  2.50778705E-001
Al  3.72805149E-001  8.74865789E-001  2.51572709E-001
Al  3.73951075E-001  7.49947231E-001  3.74243401E-001
Al  2.49991630E-001  8.75153919E-001  3.75020475E-001
Al  2.47877141E-001  7.50031154E-001  4.97815917E-001
Al  3.74763363E-001  8.74153038E-001  4.98701097E-001
Al  3.77357814E-001  7.50862781E-001  6.25476269E-001
Al  2.50532535E-001  8.75533332E-001  6.26682964E-001
Al  2.50050867E-001  7.47520057E-001  7.49948968E-001
Al  3.75135260E-001  8.74561499E-001  7.51478001E-001
Al  3.74968078E-001  7.50151942E-001  8.74621840E-001
Al  2.50008397E-001  8.74798121E-001  8.74890187E-001
Al  5.00008506E-001  -1.81298565E-005  -4.95939610E-004
Al  6.24773616E-001  1.25023145E-001  2.68731158E-004
Al  6.25090186E-001  2.86503067E-004  1.26004772E-001
Al  4.99974088E-001  1.25033133E-001  1.27147468E-001
Al  5.00208430E-001  2.49253080E-003  2.49272037E-001
Al  6.24836349E-001  1.24917832E-001  2.52106559E-001
Al  6.27212189E-001  7.07852176E-004  3.72682216E-001
Al  4.97685113E-001  1.22594085E-001  3.75814303E-001
Al  4.99969378E-001  -8.61932594E-005  5.00115839E-001
Al  6.25220749E-001  1.25911587E-001  5.00237903E-001
Al  6.25064471E-001  1.51111596E-003  6.24940764E-001
Al  4.98690670E-001  1.27426413E-001  6.24981050E-001
Al  5.00026067E-001  9.60950200E-004  7.49981148E-001
Al  6.24991216E-001  1.22535420E-001  7.48979888E-001
Al  6.25875961E-001  -2.33031906E-005  8.74991145E-001
Al  4.99087390E-001  1.25205694E-001  8.74982120E-001
Al  4.99991583E-001  2.48828268E-001  1.26253002E-003
Al  6.26672741E-001  3.75055501E-001  -1.02785498E-003
Al  6.25301918E-001  2.48002543E-001  1.25195930E-001
Al  5.00017344E-001  3.74980309E-001  1.25090950E-001
Al  5.00159405E-001  2.50241280E-001  2.52499523E-001
Al  6.26194632E-001  3.75518644E-001  2.50135118E-001
Al  6.26961593E-001  2.51205736E-001  3.75018714E-001
Al  4.98344389E-001  3.74691124E-001  3.74613017E-001
Al  4.99942559E-001  2.49940647E-001  5.01984623E-001
Al  6.24695401E-001  3.74866083E-001  4.98624864E-001
Al  6.25253748E-001  2.51753904E-001  6.24343054E-001
Al  5.01303803E-001  3.75202588E-001  6.25076736E-001
Al  4.99973876E-001  2.49940080E-001  7.50680344E-001
Al  6.24990973E-001  3.75106868E-001  7.50019802E-001
Al  6.26724484E-001  2.49948736E-001  8.74981275E-001
Al  4.97614760E-001  3.75456271E-001  8.75237291E-001
Al  4.99946671E-001  4.99954287E-001  1.86490525E-005
Al  6.24917464E-001  6.26917846E-001  2.25983539E-004
Al  6.24577368E-001  5.01720102E-001  1.26239391E-001
Al  4.99991620E-001  6.24461532E-001  1.22814378E-001
Al  4.99897225E-001  4.99779773E-001  2.51965393E-001
Al  6.27139609E-001  6.26840998E-001  2.50782164E-001
Al  6.26038056E-001  5.00033060E-001  3.73794119E-001
Al  5.00117412E-001  6.22804247E-001  3.75280821E-001
Al  5.02220172E-001  4.99956160E-001  5.01482125E-001
Al  6.27348647E-001  6.26221366E-001  4.97984614E-001
Al  6.24178087E-001  4.99718297E-001  6.25165498E-001
Al  4.97707358E-001  6.24027849E-001  6.25862102E-001
Al  5.00036437E-001  4.99926504E-001  7.49960209E-001
Al  6.24328658E-001  6.25494287E-001  7.49331144E-001
Al  6.26955618E-001  5.00624316E-001  8.76107922E-001
Al  4.97766875E-001  6.27414417E-001  8.72528269E-001
Al  4.99782245E-001  7.50474313E-001  2.67720251E-005
Al  6.27327512E-001  8.76025426E-001  -2.19529268E-004
Al  6.24588455E-001  7.49658123E-001  1.25337304E-001
Al  4.99738553E-001  8.74132553E-001  1.22540587E-001
Al  5.00009131E-001  7.50018365E-001  2.51397188E-001
Al  6.25081208E-001  8.74691147E-001  2.50831372E-001
Al  6.22600940E-001  7.49818964E-001  3.74826166E-001
Al  4.99337486E-001  8.75322965E-001  3.72613406E-001
Al  4.99487162E-001  7.49141134E-001  4.98601357E-001
Al  6.22556093E-001  8.75345750E-001  4.99981811E-001
Al  6.22641686E-001  7.49981672E-001  6.27380215E-001
Al  4.98533448E-001  8.77259649E-001  6.25008464E-001
Al  5.00265077E-001  7.52306501E-001  7.50018719E-001
Al  6.24792328E-001  8.75254782E-001  7.47919724E-001
Al  6.27283117E-001  7.49719350E-001  8.76948304E-001
Al  5.00684132E-001  8.74711965E-001  8.74699338E-001
Al  7.49003970E-001  3.30803234E-004  2.40219905E-003
Al  8.75060799E-001  1.25665961E-001  -8.70721164E-006
Al  8.77167507E-001  1.91373483E-005  1.26894578E-001
Al  7.49924209E-001  1.24366329E-001  1.23699292E-001
Al  7.47742419E-001  1.28474633E-003  2.49662657E-001
Al  8.73415313E-001  1.24303867E-001  2.48041755E-001
Al  8.75071337E-001  -5.44292829E-005  3.75705293E-001
Al  7.50215256E-001  1.24646552E-001  3.76209985E-001
Al  7.51820161E-001  -1.49704198E-003  4.98452099E-001
Al  8.74924002E-001  1.27469501E-001  4.97656063E-001
Al  8.75156888E-001  2.37603161E-004  6.24981781E-001
Al  7.49910175E-001  1.25580804E-001  6.27186667E-001
Al  7.50081610E-001  2.54274324E-004  7.50658848E-001
Al  8.73474222E-001  1.25412248E-001  7.51197567E-001
Al  8.74239564E-001  2.28227531E-003  8.77498311E-001
Al  7.49734242E-001  1.24962609E-001  8.75753570E-001
Al  7.49991403E-001  2.52055396E-001  1.79592031E-004
Al  8.76430611E-001  3.75895387E-001  4.36216227E-005
Al  8.75060018E-001  2.47623550E-001  1.25512371E-001
Al  7.47540873E-001  3.76578974E-001  1.25257703E-001
Al  7.50032191E-001  2.48132759E-001  2.48140373E-001
Al  8.74954811E-001  3.74608400E-001  2.50041499E-001
Al  8.73748990E-001  2.50077917E-001  3.74943822E-001
Al  7.49825650E-001  3.73533511E-001  3.77469340E-001
Al  7.48770720E-001  2.52342212E-001  4.99953351E-001
Al  8.74553045E-001  3.74474459E-001  4.99981881E-001
Al  8.73396363E-001  2.48868865E-001  6.23283265E-001
Al  7.50745476E-001  3.72764794E-001  6.22721031E-001
Al  7.50141467E-001  2.47500955E-001  7.50096171E-001
Al  8.74976547E-001  3.74964968E-001  7.51698479E-001
Al  8.75033484E-001  2.48012759E-001  8.72504415E-001
Al  7.50025958E-001  3.74810926E-001  8.72618514E-001
Al  7.50775835E-001  4.97922638E-001  8.63868138E-005
Al  8.76371738E-001  6.25039968E-001  -5.11619047E-005
Al  8.74991246E-001  5.00178149E-001  1.23091991E-001
Al  7.52127582E-001  6.24964188E-001  1.25409657E-001
Al  7.50104518E-001  4.99922208E-001  2.52324526E-001
Al  8.74978368E-001  6.23059844E-001  2.49425040E-001
Al  8.74442617E-001  5.02401945E-001  3.73564316E-001
Al  7.49438847E-001  6.24545820E-001  3.73628263E-001
Al  7.50124100E-001  4.97589900E-001  4.97750752E-001
Al  8.75008370E-001  6.24559319E-001  4.99979752E-001
Al  8.74976880E-001  5.01354435E-001  6.24368344E-001
Al  7.51543818E-001  6.24991630E-001  6.24990728E-001
Al  7.48471163E-001  5.01473804E-001  7.52488453E-001
Al  8.75339125E-001  6.25163144E-001  7.51484533E-001
Al  8.73018426E-001  5.02073795E-001  8.74756955E-001
Al  7.47595258E-001  6.24712371E-001  8.75403395E-001
Al  7.49422588E-001  7.50261096E-001  1.89243256E-005
Al  8.75664700E-001  8.75290054E-001  -2.49938135E-003
Al  8.75008393E-001  7.49086118E-001  1.24867391E-001
Al  7.50020365E-001  8.77051087E-001  1.25992537E-001
Al  7.51081506E-001  7.50538989E-001  2.49686034E-001
Al  8.73252786E-001  8.76061645E-001  2.50083548E-001
Al  8.75034290E-001  7.49655309E-001  3.72507618E-001
Al  7.49069282E-001  8.75197811E-001  3.73070518E-001
Al  7.48643295E-001  7.49890186E-001  5.00243847E-001
Al  8.75032627E-001  8.72750602E-001  5.01384401E-001
Al  8.76899289E-001  7.48630276E-001  6.26752551E-001
Al  7.48100241E-001  8.77348265E-001  6.25346609E-001
Al  7.49817871E-001  7.52428797E-001  7.49962271E-001
Al  8.75081994E-001  8.76782218E-001  7.50135193E-001
Al  8.77460116E-001  7.50743605E-001  8.75234670E-001
Al  7.49272712E-001  8.73698655E-001  8.75023832E-001
K_POINTS automatic
2 2 2 1 1 1
