&CONTROL
restart_mode = 'from_scratch',
calculation = 'scf',
outdir = '/gpfs/bb/bxp912/scratch',
pseudo_dir = '/gpfs/bb/bxp912/pseudopotentials',
prefix = '2.48000000E-001',
etot_conv_thr = 1.00000000E-007,
forc_conv_thr = 1.00000000E-007,
nstep = 200,
tprnfor = .true.,
tstress = .true.,
disk_io = 'low',
/
&SYSTEM
ibrav = 14,
celldm(1) = 3.05001797E+001,
celldm(2) = 1.00000000E+000,
celldm(3) = 1.00000000E+000,
celldm(4) = 0.00000000E+000,
celldm(5) = 0.00000000E+000,
celldm(6) = 0.00000000E+000,
nat = 256,
ntyp = 1,
ecutwfc = 35,
ecutrho = 208,
occupations = 'smearing',
smearing = 'mv',
degauss = 5.00000007E-002,
/
&ELECTRONS
diagonalization = 'david',
mixing_mode = plain,
mixing_beta = 6.99999988E-001,
conv_thr = 1.00000000E-007,
/
&IONS
ion_dynamics = 'bfgs',
/
&CELL
cell_dynamics = 'bfgs',
press = 0.00000000E+000,
cell_factor = 2.00000000E+000,
/
ATOMIC_SPECIES
Al  2.69815390E+001  Al.pbe-n-kjpaw_psl.0.1.UPF
ATOMIC_POSITIONS crystal
Al  -1.36604706E-004  -5.95375778E-004  5.70473140E-004
Al  1.25857676E-001  1.27498834E-001  1.86358026E-004
Al  1.25661796E-001  9.16985341E-006  1.22962130E-001
Al  -6.77214145E-004  1.26544710E-001  1.24784097E-001
Al  1.08521137E-003  -1.23876681E-003  2.50096419E-001
Al  1.24972197E-001  1.23787856E-001  2.52499985E-001
Al  1.23189301E-001  -1.06693125E-004  3.75251632E-001
Al  3.00528576E-004  1.25220082E-001  3.74967990E-001
Al  -4.92661756E-004  4.22169234E-004  4.98909687E-001
Al  1.22575657E-001  1.22597423E-001  4.99968395E-001
Al  1.24938172E-001  -6.94327342E-004  6.22604525E-001
Al  2.10598317E-003  1.25021194E-001  6.23795071E-001
Al  -1.83832425E-003  -5.36379963E-004  7.49572210E-001
Al  1.23137817E-001  1.25090161E-001  7.50353908E-001
Al  1.25482875E-001  -3.43810836E-004  8.74043908E-001
Al  -2.41705039E-003  1.23832504E-001  8.74642793E-001
Al  -1.53298852E-003  2.49312040E-001  -2.49004285E-003
Al  1.26424301E-001  3.75831526E-001  9.65525341E-004
Al  1.27304575E-001  2.49928067E-001  1.24326358E-001
Al  2.10788918E-003  3.74329848E-001  1.24975034E-001
Al  -9.97047829E-004  2.50153832E-001  2.48144241E-001
Al  1.25022126E-001  3.75777150E-001  2.49576798E-001
Al  1.25008824E-001  2.50018786E-001  3.75009351E-001
Al  -2.32065398E-005  3.76044366E-001  3.73868753E-001
Al  -5.03544608E-005  2.49066873E-001  5.00018581E-001
Al  1.24981738E-001  3.74701719E-001  4.98927621E-001
Al  1.25527064E-001  2.47593353E-001  6.24388810E-001
Al  -1.30891026E-003  3.74991231E-001  6.24991593E-001
Al  4.20397755E-005  2.48182552E-001  7.50235194E-001
Al  1.23708551E-001  3.75091672E-001  7.49443946E-001
Al  1.27453154E-001  2.47570904E-001  8.74980230E-001
Al  1.86403959E-005  3.75008584E-001  8.74907086E-001
Al  -8.43698630E-005  4.99966461E-001  9.27743071E-005
Al  1.25142740E-001  6.25431021E-001  5.57340858E-005
Al  1.24778257E-001  5.00153477E-001  1.24307099E-001
Al  2.28174405E-005  6.24991473E-001  1.22500832E-001
Al  8.05215716E-004  4.98171709E-001  2.51832946E-001
Al  1.26851028E-001  6.22500602E-001  2.50040000E-001
Al  1.25089147E-001  5.00152182E-001  3.75450110E-001
Al  -2.01490040E-003  6.24958114E-001  3.74295002E-001
Al  8.83658783E-006  5.02257667E-001  4.99331943E-001
Al  1.26178129E-001  6.24862940E-001  4.99451929E-001
Al  1.25089820E-001  5.02499197E-001  6.22719817E-001
Al  6.46220616E-004  6.24966676E-001  6.27447717E-001
Al  -2.17319888E-004  4.99990883E-001  7.48048330E-001
Al  1.26448491E-001  6.22921149E-001  7.47679942E-001
Al  1.24855536E-001  5.02400226E-001  8.76430383E-001
Al  5.48513196E-004  6.25019694E-001  8.75071999E-001
Al  -2.20654140E-003  7.51381481E-001  -1.57368515E-003
Al  1.25322761E-001  8.73235494E-001  2.07884315E-003
Al  1.25067570E-001  7.47920960E-001  1.24183976E-001
Al  4.42503884E-005  8.75530644E-001  1.24010523E-001
Al  -1.00461020E-003  7.49979875E-001  2.51701479E-001
Al  1.25045778E-001  8.75368136E-001  2.50124190E-001
Al  1.24675865E-001  7.47543427E-001  3.77497569E-001
Al  1.42281237E-004  8.74583496E-001  3.75991062E-001
Al  -3.47543025E-004  7.49532719E-001  5.00018536E-001
Al  1.25018146E-001  8.75036173E-001  4.99896529E-001
Al  1.26842625E-001  7.50384202E-001  6.25277284E-001
Al  -6.75870471E-004  8.72528885E-001  6.25275589E-001
Al  -1.90160458E-004  7.52123198E-001  7.51361932E-001
Al  1.25116484E-001  8.75190573E-001  7.48267228E-001
Al  1.25302656E-001  7.49991335E-001  8.77480090E-001
Al  9.10628776E-004  8.77092785E-001  8.77466000E-001
Al  2.50741383E-001  2.49972767E-003  3.95827149E-004
Al  3.76808837E-001  1.24428408E-001  1.56392039E-003
Al  3.75008877E-001  5.69936808E-005  1.24982020E-001
Al  2.51490643E-001  1.24856555E-001  1.25519971E-001
Al  2.50578581E-001  8.96636248E-004  2.49981452E-001
Al  3.72725286E-001  1.24825736E-001  2.49541307E-001
Al  3.75008543E-001  2.16421966E-003  3.74808925E-001
Al  2.51153347E-001  1.23501282E-001  3.72913432E-001
Al  2.48453698E-001  -8.52398767E-006  4.98745002E-001
Al  3.77329223E-001  1.25035852E-001  5.00251450E-001
Al  3.74733143E-001  4.26710469E-004  6.25098598E-001
Al  2.51281826E-001  1.24991548E-001  6.24541887E-001
Al  2.51010599E-001  -1.51789671E-004  7.50036524E-001
Al  3.75763953E-001  1.24991563E-001  7.48479034E-001
Al  3.72680919E-001  -5.21961265E-005  8.77477752E-001
Al  2.49978768E-001  1.26864034E-001  8.73675815E-001
Al  2.47705713E-001  2.49979994E-001  8.15989676E-004
Al  3.75455894E-001  3.77408838E-001  -2.04785354E-004
Al  3.75018594E-001  2.50008588E-001  1.24899984E-001
Al  2.47840941E-001  3.76552226E-001  1.26868522E-001
Al  2.50019802E-001  2.49695568E-001  2.52499624E-001
Al  3.74290013E-001  3.75017533E-001  2.51122603E-001
Al  3.74058646E-001  2.49589821E-001  3.74949593E-001
Al  2.51446311E-001  3.74888089E-001  3.72511986E-001
Al  2.50008508E-001  2.48735851E-001  4.98205430E-001
Al  3.72542816E-001  3.77148812E-001  5.01236171E-001
Al  3.74269114E-001  2.52115570E-001  6.24953110E-001
Al  2.49831106E-001  3.77286500E-001  6.25018370E-001
Al  2.50043019E-001  2.52499770E-001  7.47518956E-001
Al  3.74824962E-001  3.77047939E-001  7.52048142E-001
Al  3.74418363E-001  2.47658311E-001  8.76751507E-001
Al  2.47726298E-001  3.77496572E-001  8.75129957E-001
Al  2.49683216E-001  4.98405259E-001  -8.70772448E-006
Al  3.74715252E-001  6.24874537E-001  -1.53643772E-003
Al  3.77045705E-001  4.97507500E-001  1.22519686E-001
Al  2.49981489E-001  6.26534245E-001  1.26204762E-001
Al  2.47784151E-001  5.00233711E-001  2.50027145E-001
Al  3.77361371E-001  6.23848642E-001  2.49981353E-001
Al  3.75025652E-001  5.01029420E-001  3.75018656E-001
Al  2.50018685E-001  6.24474045E-001  3.77499988E-001
Al  2.50906446E-001  5.00132996E-001  5.00128956E-001
Al  3.74634591E-001  6.23779526E-001  4.99454175E-001
Al  3.75018136E-001  4.97799270E-001  6.25103645E-001
Al  2.49798066E-001  6.26553751E-001  6.24294480E-001
Al  2.50026690E-001  5.00800010E-001  7.50018169E-001
Al  3.74811912E-001  6.23438035E-001  7.49892278E-001
Al  3.74686445E-001  5.00605638E-001  8.75129342E-001
Al  2.49931855E-001  6.24554992E-001  8.75088790E-001
Al  2.51894325E-001  7.50021461E-001  2.49997188E-003
Al  3.75306603E-001  8.77123666E-001  -2.35269079E-003
Al  3.77490036E-001  7.48923946E-001  1.24909400E-001
Al  2.50312405E-001  8.75917454E-001  1.25576672E-001
Al  2.50461254E-001  7.48220293E-001  2.47665079E-001
Al  3.77086446E-001  8.75060655E-001  2.49981649E-001
Al  3.75031945E-001  7.50033002E-001  3.72715784E-001
Al  2.47529126E-001  8.74955710E-001  3.75018108E-001
Al  2.49671415E-001  7.47501940E-001  5.00008608E-001
Al  3.75050772E-001  8.74622380E-001  5.02377455E-001
Al  3.75008753E-001  7.50909772E-001  6.24013979E-001
Al  2.49780061E-001  8.74161903E-001  6.24176675E-001
Al  2.49136747E-001  7.50074080E-001  7.52328961E-001
Al  3.74700965E-001  8.74975641E-001  7.48845770E-001
Al  3.76397324E-001  7.51827262E-001  8.74928911E-001
Al  2.50022372E-001  8.74811615E-001  8.74891048E-001
Al  4.99961587E-001  -2.44976152E-003  1.71221721E-005
Al  6.26255031E-001  1.24769309E-001  -1.81536191E-005
Al  6.25098718E-001  -2.82949762E-004  1.23478396E-001
Al  4.98483869E-001  1.26818495E-001  1.25409549E-001
Al  5.00062559E-001  -1.86096053E-003  2.49981634E-001
Al  6.23682235E-001  1.24225434E-001  2.50111323E-001
Al  6.26050801E-001  2.43122957E-003  3.74991165E-001
Al  5.02461433E-001  1.25018125E-001  3.75298165E-001
Al  4.99981744E-001  2.43707160E-003  5.02313718E-001
Al  6.26276756E-001  1.25524075E-001  5.01415051E-001
Al  6.23325343E-001  -1.38066379E-003  6.23967177E-001
Al  5.01426978E-001  1.27031595E-001  6.24323239E-001
Al  5.01898118E-001  1.79633149E-005  7.47611167E-001
Al  6.27125217E-001  1.27474394E-001  7.47508754E-001
Al  6.24029179E-001  2.38677417E-005  8.74277809E-001
Al  5.02492602E-001  1.25057272E-001  8.74980465E-001
Al  5.00360320E-001  2.49270254E-001  -9.57013812E-004
Al  6.27446482E-001  3.77493166E-001  4.53004496E-004
Al  6.25584623E-001  2.49980982E-001  1.25217971E-001
Al  4.99981892E-001  3.72553084E-001  1.23374886E-001
Al  4.98391593E-001  2.49440491E-001  2.49880202E-001
Al  6.22584709E-001  3.74946354E-001  2.49754117E-001
Al  6.26459728E-001  2.50093912E-001  3.76751712E-001
Al  5.00018133E-001  3.75353777E-001  3.74970637E-001
Al  5.02368592E-001  2.51738028E-001  5.02009878E-001
Al  6.22557920E-001  3.75882525E-001  4.99964167E-001
Al  6.24878846E-001  2.49934389E-001  6.23448018E-001
Al  4.99416672E-001  3.75059765E-001  6.25123843E-001
Al  4.99938723E-001  2.50757314E-001  7.49990959E-001
Al  6.25036082E-001  3.75314405E-001  7.51853820E-001
Al  6.25067423E-001  2.50989040E-001  8.77404258E-001
Al  5.00602293E-001  3.72809088E-001  8.77250104E-001
Al  5.00008924E-001  5.00438541E-001  8.68171304E-006
Al  6.23790639E-001  6.25801817E-001  6.21353913E-005
Al  6.25123821E-001  4.98491908E-001  1.24991567E-001
Al  5.00019061E-001  6.24025044E-001  1.24981497E-001
Al  5.00461362E-001  5.02342478E-001  2.48560806E-001
Al  6.26557773E-001  6.24586891E-001  2.49743089E-001
Al  6.24595754E-001  4.97889855E-001  3.76598436E-001
Al  5.01726300E-001  6.26641612E-001  3.73190550E-001
Al  4.99913301E-001  5.00311780E-001  5.00336436E-001
Al  6.24771813E-001  6.27471349E-001  4.98696321E-001
Al  6.25009513E-001  4.99633599E-001  6.24004678E-001
Al  5.01482252E-001  6.23729587E-001  6.26015767E-001
Al  4.97592161E-001  4.99271824E-001  7.50036148E-001
Al  6.26036130E-001  6.24743594E-001  7.48915075E-001
Al  6.25065043E-001  5.00367892E-001  8.74479590E-001
Al  5.02059004E-001  6.25456301E-001  8.74958567E-001
Al  4.99926871E-001  7.50100192E-001  -1.09600154E-003
Al  6.22667627E-001  8.74977828E-001  2.22320646E-003
Al  6.25263322E-001  7.52499502E-001  1.25018491E-001
Al  4.97789622E-001  8.72677767E-001  1.27499969E-001
Al  4.99440146E-001  7.51452618E-001  2.49480638E-001
Al  6.25109662E-001  8.74952192E-001  2.49296142E-001
Al  6.27328304E-001  7.48163344E-001  3.76375296E-001
Al  4.97625415E-001  8.75073211E-001  3.72718174E-001
Al  5.00240235E-001  7.47546604E-001  5.00268099E-001
Al  6.24780742E-001  8.75606505E-001  4.97700808E-001
Al  6.26541088E-001  7.48174807E-001  6.25760421E-001
Al  5.02011807E-001  8.73808288E-001  6.24991269E-001
Al  5.00042699E-001  7.49926042E-001  7.49385655E-001
Al  6.25198120E-001  8.74990968E-001  7.49991378E-001
Al  6.23218210E-001  7.50027418E-001  8.77083458E-001
Al  4.99981878E-001  8.73439622E-001  8.76460598E-001
Al  7.49973313E-001  -3.61500713E-004  8.10675049E-005
Al  8.74845123E-001  1.24496752E-001  -2.42426311E-003
Al  8.75070557E-001  -2.48543721E-003  1.25073077E-001
Al  7.50363207E-001  1.26556163E-001  1.24267787E-001
Al  7.49846620E-001  8.09715940E-004  2.49484973E-001
Al  8.77043991E-001  1.24384867E-001  2.49764072E-001
Al  8.75008705E-001  8.53392851E-006  3.72698765E-001
Al  7.52372157E-001  1.22775961E-001  3.73453178E-001
Al  7.50093822E-001  -1.13958105E-003  5.00018796E-001
Al  8.74315617E-001  1.25407061E-001  5.00109130E-001
Al  8.73761685E-001  1.58003014E-003  6.24844655E-001
Al  7.51991784E-001  1.23024039E-001  6.24990181E-001
Al  7.51319240E-001  -2.10878069E-004  7.49946301E-001
Al  8.75769998E-001  1.25179898E-001  7.49963511E-001
Al  8.74060899E-001  -4.61918351E-004  8.73042710E-001
Al  7.49735705E-001  1.27172489E-001  8.74889676E-001
Al  7.51636850E-001  2.47618238E-001  -1.94759744E-003
Al  8.75780187E-001  3.74059748E-001  -1.38856827E-003
Al  8.75135828E-001  2.49981832E-001  1.27218905E-001
Al  7.49972741E-001  3.77223181E-001  1.22597126E-001
Al  7.50124766E-001  2.52123745E-001  2.47622632E-001
Al  8.74929341E-001  3.74980776E-001  2.49857223E-001
Al  8.75491918E-001  2.50547390E-001  3.77293521E-001
Al  7.48181770E-001  3.74770450E-001  3.74981582E-001
Al  7.52017941E-001  2.49114732E-001  5.02424902E-001
Al  8.74831927E-001  3.74841792E-001  4.99946762E-001
Al  8.74253377E-001  2.50295978E-001  6.23426727E-001
Al  7.50060765E-001  3.74296595E-001  6.24981682E-001
Al  7.50078785E-001  2.50318992E-001  7.50935603E-001
Al  8.74981262E-001  3.74966367E-001  7.49975303E-001
Al  8.74781327E-001  2.49991596E-001  8.72752430E-001
Al  7.49087075E-001  3.74475287E-001  8.75091743E-001
Al  7.49976417E-001  5.01689671E-001  2.88384530E-005
Al  8.74076613E-001  6.25186202E-001  -2.16607357E-003
Al  8.75836867E-001  4.99706217E-001  1.25045204E-001
Al  7.50115551E-001  6.23676251E-001  1.24482305E-001
Al  7.49849318E-001  4.99991485E-001  2.50078636E-001
Al  8.74874357E-001  6.25340117E-001  2.49728074E-001
Al  8.75042911E-001  5.00654299E-001  3.74706530E-001
Al  7.50130073E-001  6.26087648E-001  3.74338587E-001
Al  7.49324939E-001  5.01253333E-001  5.00477266E-001
Al  8.77153241E-001  6.25024418E-001  5.01018720E-001
Al  8.73002216E-001  4.99981893E-001  6.23946201E-001
Al  7.48172075E-001  6.24897733E-001  6.24733870E-001
Al  7.49981160E-001  5.00705940E-001  7.52497695E-001
Al  8.75174533E-001  6.26407162E-001  7.50022027E-001
Al  8.74981532E-001  4.97508529E-001  8.74429493E-001
Al  7.48516256E-001  6.25880743E-001  8.75049533E-001
Al  7.51312511E-001  7.49990878E-001  1.70648334E-004
Al  8.74581987E-001  8.74980939E-001  -2.00639257E-003
Al  8.74981752E-001  7.48087738E-001  1.22509686E-001
Al  7.51373611E-001  8.73678228E-001  1.22621484E-001
Al  7.52476226E-001  7.47668548E-001  2.51961148E-001
Al  8.74855719E-001  8.75636635E-001  2.51406236E-001
Al  8.72736286E-001  7.47509282E-001  3.74978249E-001
Al  7.51641779E-001  8.73714126E-001  3.75008735E-001
Al  7.50008532E-001  7.50223115E-001  5.01852093E-001
Al  8.74581815E-001  8.75280908E-001  5.01083143E-001
Al  8.74981591E-001  7.49448369E-001  6.25489203E-001
Al  7.51314568E-001  8.74981867E-001  6.25008820E-001
Al  7.49521807E-001  7.48588083E-001  7.51343535E-001
Al  8.75244686E-001  8.77368878E-001  7.50125888E-001
Al  8.72665597E-001  7.50094249E-001  8.74851239E-001
Al  7.48467585E-001  8.77493102E-001  8.77321467E-001
K_POINTS automatic
2 2 2 1 1 1
