&CONTROL
restart_mode = 'from_scratch',
calculation = 'scf',
outdir = '/gpfs/bb/bxp912/scratch',
pseudo_dir = '/gpfs/bb/bxp912/pseudopotentials',
prefix = '2.48000000E-001',
etot_conv_thr = 1.00000000E-007,
forc_conv_thr = 1.00000000E-007,
nstep = 200,
tprnfor = .true.,
tstress = .true.,
disk_io = 'low',
/
&SYSTEM
ibrav = 14,
celldm(1) = 3.05001797E+001,
celldm(2) = 1.00000000E+000,
celldm(3) = 1.00000000E+000,
celldm(4) = 0.00000000E+000,
celldm(5) = 0.00000000E+000,
celldm(6) = 0.00000000E+000,
nat = 256,
ntyp = 1,
ecutwfc = 35,
ecutrho = 208,
occupations = 'smearing',
smearing = 'mv',
degauss = 5.00000007E-002,
/
&ELECTRONS
diagonalization = 'david',
mixing_mode = plain,
mixing_beta = 6.99999988E-001,
conv_thr = 1.00000000E-007,
/
&IONS
ion_dynamics = 'bfgs',
/
&CELL
cell_dynamics = 'bfgs',
press = 0.00000000E+000,
cell_factor = 2.00000000E+000,
/
ATOMIC_SPECIES
Al  2.69815390E+001  Al.pbe-n-kjpaw_psl.0.1.UPF
ATOMIC_POSITIONS crystal
Al  7.51513722E-005  -8.88962115E-004  -9.75562415E-004
Al  1.24149933E-001  1.24593701E-001  1.41181386E-003
Al  1.23659591E-001  1.89511479E-005  1.25538032E-001
Al  2.28924618E-003  1.27127337E-001  1.27067379E-001
Al  -1.09131548E-004  3.71280409E-005  2.49923017E-001
Al  1.25009588E-001  1.25018360E-001  2.50360891E-001
Al  1.25814094E-001  -4.69422388E-005  3.77493186E-001
Al  2.45419478E-003  1.23051430E-001  3.74856964E-001
Al  5.46796649E-004  -1.43292972E-003  4.99493346E-001
Al  1.24918371E-001  1.23938979E-001  4.99582296E-001
Al  1.25008870E-001  -7.09865082E-004  6.27251964E-001
Al  1.25530119E-003  1.25913322E-001  6.25904531E-001
Al  4.68964389E-004  -1.11643358E-003  7.49808556E-001
Al  1.23862228E-001  1.22593880E-001  7.50009019E-001
Al  1.25502873E-001  -7.39857846E-004  8.75041271E-001
Al  -2.36453528E-003  1.23373341E-001  8.75537615E-001
Al  -7.78652710E-004  2.49939875E-001  -2.38197530E-003
Al  1.25759657E-001  3.73641284E-001  6.16131102E-004
Al  1.24889110E-001  2.50471070E-001  1.23456343E-001
Al  8.38215250E-005  3.77199232E-001  1.24889307E-001
Al  -2.14532938E-005  2.48998953E-001  2.47515166E-001
Al  1.23500716E-001  3.74119308E-001  2.49765406E-001
Al  1.25018113E-001  2.49833020E-001  3.77108470E-001
Al  8.68870141E-006  3.75018233E-001  3.75555699E-001
Al  2.38102792E-003  2.50214152E-001  4.97911507E-001
Al  1.27495889E-001  3.75230531E-001  4.98516507E-001
Al  1.25379450E-001  2.47618044E-001  6.24970950E-001
Al  3.23499493E-004  3.75287175E-001  6.25019205E-001
Al  -6.87806246E-004  2.50265099E-001  7.50286791E-001
Al  1.27301986E-001  3.76646509E-001  7.49981618E-001
Al  1.26097397E-001  2.52492613E-001  8.74952121E-001
Al  -9.66487963E-005  3.74947106E-001  8.76193065E-001
Al  -1.76372700E-003  5.00019252E-001  -7.69561644E-004
Al  1.27341168E-001  6.22505023E-001  9.32897996E-004
Al  1.24842590E-001  4.98519711E-001  1.23155888E-001
Al  -1.12485798E-004  6.26729648E-001  1.22736590E-001
Al  7.21683667E-005  4.98708442E-001  2.47790978E-001
Al  1.25078731E-001  6.24888185E-001  2.50046590E-001
Al  1.23706073E-001  4.99879296E-001  3.74835498E-001
Al  4.84354092E-004  6.23763206E-001  3.72533934E-001
Al  -2.47822291E-003  5.00302166E-001  5.00069812E-001
Al  1.25155622E-001  6.24449845E-001  5.00022740E-001
Al  1.26583877E-001  4.98885439E-001  6.27243895E-001
Al  1.78254982E-003  6.25351064E-001  6.24839777E-001
Al  -1.88789859E-004  5.00082010E-001  7.49980743E-001
Al  1.27401664E-001  6.25141985E-001  7.47788112E-001
Al  1.25196607E-001  5.02497768E-001  8.75284062E-001
Al  -9.82751418E-004  6.25780823E-001  8.74706705E-001
Al  1.68873049E-003  7.51807676E-001  1.84598492E-005
Al  1.23756902E-001  8.74460135E-001  9.20341149E-004
Al  1.23806101E-001  7.49981406E-001  1.25415027E-001
Al  1.79194949E-004  8.74777726E-001  1.25987958E-001
Al  1.23034529E-004  7.49160080E-001  2.52460001E-001
Al  1.27453127E-001  8.74451968E-001  2.50091032E-001
Al  1.27349302E-001  7.49873532E-001  3.74842233E-001
Al  -1.92042847E-005  8.77296658E-001  3.76416057E-001
Al  2.49988706E-003  7.49181076E-001  4.99331881E-001
Al  1.24970481E-001  8.76005821E-001  5.02387866E-001
Al  1.25413908E-001  7.48438904E-001  6.24089261E-001
Al  1.71004835E-003  8.76306871E-001  6.22759929E-001
Al  -8.44838340E-006  7.49608292E-001  7.49731669E-001
Al  1.26597817E-001  8.73447261E-001  7.48758895E-001
Al  1.27211005E-001  7.52472899E-001  8.75562641E-001
Al  -5.57382060E-004  8.75008404E-001  8.76277767E-001
Al  2.51683095E-001  1.07581605E-003  -1.52558448E-003
Al  3.75294269E-001  1.22508415E-001  5.34945279E-005
Al  3.72942661E-001  5.10904196E-005  1.26361856E-001
Al  2.50019094E-001  1.25563928E-001  1.26857823E-001
Al  2.49827462E-001  -1.93745787E-003  2.49964857E-001
Al  3.77317383E-001  1.24144787E-001  2.49991479E-001
Al  3.72553244E-001  -1.83460094E-005  3.74979789E-001
Al  2.51072175E-001  1.27426946E-001  3.75008741E-001
Al  2.50200641E-001  -3.58328516E-004  4.99385253E-001
Al  3.74369376E-001  1.23055783E-001  4.99389050E-001
Al  3.73422997E-001  1.85393390E-005  6.25274522E-001
Al  2.48282624E-001  1.23228942E-001  6.26467463E-001
Al  2.52499210E-001  1.16151008E-004  7.50031532E-001
Al  3.75022890E-001  1.26944007E-001  7.49980429E-001
Al  3.74263935E-001  3.61750505E-004  8.74850859E-001
Al  2.52411021E-001  1.25008892E-001  8.75528606E-001
Al  2.52009967E-001  2.49980768E-001  1.81237616E-005
Al  3.74275286E-001  3.77138646E-001  -5.38666985E-004
Al  3.75018489E-001  2.50073021E-001  1.24595180E-001
Al  2.52498975E-001  3.75060549E-001  1.24978282E-001
Al  2.51485255E-001  2.48182356E-001  2.50018965E-001
Al  3.74177651E-001  3.74977941E-001  2.47606685E-001
Al  3.74991566E-001  2.48653668E-001  3.76247855E-001
Al  2.47500993E-001  3.73849928E-001  3.75018157E-001
Al  2.48394920E-001  2.50008401E-001  4.98256698E-001
Al  3.74849944E-001  3.77494648E-001  5.00064502E-001
Al  3.74981813E-001  2.49914556E-001  6.24705254E-001
Al  2.50553622E-001  3.74981009E-001  6.24880460E-001
Al  2.47588391E-001  2.51516234E-001  7.47575055E-001
Al  3.72539769E-001  3.73088747E-001  7.49968131E-001
Al  3.74921874E-001  2.50712112E-001  8.74980650E-001
Al  2.49885493E-001  3.76264595E-001  8.72607013E-001
Al  2.48069188E-001  4.99944065E-001  1.82255632E-005
Al  3.74054996E-001  6.25900498E-001  -2.35159060E-003
Al  3.75018297E-001  5.02374829E-001  1.25062787E-001
Al  2.50431886E-001  6.25503003E-001  1.22543226E-001
Al  2.50291810E-001  5.02291851E-001  2.50731196E-001
Al  3.74979713E-001  6.25599657E-001  2.50226524E-001
Al  3.75808327E-001  4.99819671E-001  3.74300551E-001
Al  2.50446811E-001  6.23970638E-001  3.76518684E-001
Al  2.50180426E-001  4.98685687E-001  4.97674757E-001
Al  3.75652401E-001  6.24991210E-001  4.99991083E-001
Al  3.77494561E-001  4.99296988E-001  6.22525973E-001
Al  2.48369806E-001  6.22874276E-001  6.25035642E-001
Al  2.50309289E-001  4.99822433E-001  7.49858549E-001
Al  3.75528627E-001  6.24815822E-001  7.49622946E-001
Al  3.74990383E-001  4.99947966E-001  8.74991534E-001
Al  2.49700742E-001  6.23145748E-001  8.76535422E-001
Al  2.50037284E-001  7.51589410E-001  -1.12271009E-003
Al  3.73124087E-001  8.75086912E-001  -2.37059319E-003
Al  3.74068323E-001  7.52087374E-001  1.24981655E-001
Al  2.50491715E-001  8.76572533E-001  1.27499630E-001
Al  2.50946473E-001  7.50109948E-001  2.49981557E-001
Al  3.76961160E-001  8.72911449E-001  2.48144951E-001
Al  3.73103772E-001  7.49991064E-001  3.73301136E-001
Al  2.50187084E-001  8.74853782E-001  3.74796416E-001
Al  2.51286320E-001  7.49981757E-001  5.00008515E-001
Al  3.74931677E-001  8.72515986E-001  5.00468665E-001
Al  3.76351919E-001  7.49217933E-001  6.24866582E-001
Al  2.48733756E-001  8.72761320E-001  6.26721845E-001
Al  2.47694905E-001  7.47726731E-001  7.50969610E-001
Al  3.75140105E-001  8.77375044E-001  7.52493246E-001
Al  3.75495899E-001  7.50052550E-001  8.74991551E-001
Al  2.49136007E-001  8.76599677E-001  8.74981625E-001
Al  5.00418131E-001  1.81077359E-005  5.51809302E-005
Al  6.25378240E-001  1.25403286E-001  -3.68432118E-004
Al  6.25021770E-001  1.26382138E-004  1.24228665E-001
Al  4.99055132E-001  1.26463346E-001  1.24865654E-001
Al  4.99920886E-001  4.68924021E-005  2.50977231E-001
Al  6.27003220E-001  1.24967998E-001  2.52492253E-001
Al  6.27100638E-001  1.85251065E-003  3.74746418E-001
Al  5.01811881E-001  1.26659950E-001  3.72528317E-001
Al  5.00054646E-001  -5.93916576E-005  5.00514205E-001
Al  6.24709901E-001  1.25057975E-001  5.00110511E-001
Al  6.25122336E-001  1.34383756E-004  6.24976888E-001
Al  5.00571673E-001  1.22819438E-001  6.24965799E-001
Al  4.98796068E-001  -8.49689800E-006  7.50124994E-001
Al  6.24991096E-001  1.23758527E-001  7.49944159E-001
Al  6.26112728E-001  1.71639949E-003  8.75055133E-001
Al  4.99405375E-001  1.24248751E-001  8.72613445E-001
Al  4.97624433E-001  2.51086970E-001  1.54479409E-003
Al  6.23543412E-001  3.74548356E-001  1.75768671E-003
Al  6.27495136E-001  2.47688527E-001  1.24845541E-001
Al  4.99981768E-001  3.75028786E-001  1.24981663E-001
Al  4.99892866E-001  2.49866742E-001  2.49607596E-001
Al  6.26870589E-001  3.77137359E-001  2.49461073E-001
Al  6.23660301E-001  2.49778724E-001  3.74981736E-001
Al  4.98198691E-001  3.75018149E-001  3.76731286E-001
Al  5.00249877E-001  2.49981647E-001  5.00716797E-001
Al  6.22820492E-001  3.77265902E-001  5.00088640E-001
Al  6.24991457E-001  2.50630339E-001  6.27414485E-001
Al  4.99268522E-001  3.75021357E-001  6.22960258E-001
Al  5.02480201E-001  2.51926056E-001  7.51722963E-001
Al  6.27455522E-001  3.74152667E-001  7.49646679E-001
Al  6.24644841E-001  2.49539669E-001  8.74969057E-001
Al  4.98702758E-001  3.72646723E-001  8.76407903E-001
Al  4.99755477E-001  5.01072173E-001  4.21991657E-004
Al  6.27416205E-001  6.24950330E-001  -1.23707824E-004
Al  6.24960256E-001  4.97623871E-001  1.25418081E-001
Al  4.97502158E-001  6.24951536E-001  1.27470265E-001
Al  4.99990480E-001  5.00127080E-001  2.49302275E-001
Al  6.23210046E-001  6.25200755E-001  2.49777010E-001
Al  6.22592734E-001  5.01499343E-001  3.72747933E-001
Al  4.99925555E-001  6.24901766E-001  3.72503680E-001
Al  4.99956881E-001  5.02079373E-001  5.00159691E-001
Al  6.24595385E-001  6.25269794E-001  5.02414884E-001
Al  6.25018079E-001  5.00008444E-001  6.25035490E-001
Al  5.01827133E-001  6.26078357E-001  6.23104949E-001
Al  5.00304596E-001  4.98713774E-001  7.51437401E-001
Al  6.27432551E-001  6.27499991E-001  7.48469765E-001
Al  6.24260727E-001  4.99888732E-001  8.75929557E-001
Al  5.01641693E-001  6.24991084E-001  8.74886264E-001
Al  4.99207862E-001  7.49909008E-001  1.87484857E-005
Al  6.23107437E-001  8.74841386E-001  1.00669767E-003
Al  6.27369925E-001  7.49309912E-001  1.23037846E-001
Al  4.97646418E-001  8.74143223E-001  1.27495480E-001
Al  5.00354304E-001  7.49968045E-001  2.49991101E-001
Al  6.26010497E-001  8.74038400E-001  2.47996270E-001
Al  6.26340338E-001  7.47537479E-001  3.72500132E-001
Al  5.00059543E-001  8.74928977E-001  3.72558269E-001
Al  5.02439193E-001  7.47557373E-001  4.99980011E-001
Al  6.25061684E-001  8.76928784E-001  5.01817634E-001
Al  6.25236710E-001  7.48416492E-001  6.25018122E-001
Al  5.00037582E-001  8.72546123E-001  6.25271423E-001
Al  4.99863405E-001  7.49693668E-001  7.48054188E-001
Al  6.24680903E-001  8.76986069E-001  7.51523424E-001
Al  6.23546583E-001  7.50009174E-001  8.75009081E-001
Al  5.00019931E-001  8.76837739E-001  8.73363884E-001
Al  7.47660693E-001  -4.38003112E-005  -2.28273942E-003
Al  8.74630278E-001  1.23825914E-001  -6.71509941E-005
Al  8.74456201E-001  2.49724588E-003  1.25402375E-001
Al  7.50062003E-001  1.24793936E-001  1.27206914E-001
Al  7.48792874E-001  2.33712550E-003  2.48903330E-001
Al  8.74575233E-001  1.22526581E-001  2.50008853E-001
Al  8.74409471E-001  3.31846168E-004  3.75018709E-001
Al  7.50053986E-001  1.24374627E-001  3.75037208E-001
Al  7.47595374E-001  2.37898761E-003  5.01724553E-001
Al  8.73794624E-001  1.27497894E-001  5.00687533E-001
Al  8.75024488E-001  -1.85013245E-004  6.26866338E-001
Al  7.50733864E-001  1.25726382E-001  6.25158429E-001
Al  7.52433056E-001  2.06605231E-003  7.52499721E-001
Al  8.72858616E-001  1.25809243E-001  7.50039693E-001
Al  8.74981708E-001  7.92738303E-004  8.74767481E-001
Al  7.49981566E-001  1.22613337E-001  8.74482102E-001
Al  7.50031300E-001  2.50036399E-001  -4.65232943E-004
Al  8.73405256E-001  3.75943342E-001  -1.37903561E-004
Al  8.77145125E-001  2.47502420E-001  1.24876964E-001
Al  7.50254199E-001  3.76097027E-001  1.27438346E-001
Al  7.49979490E-001  2.48965370E-001  2.48866303E-001
Al  8.76610396E-001  3.75056471E-001  2.49817053E-001
Al  8.75009521E-001  2.49947396E-001  3.75219342E-001
Al  7.49961424E-001  3.74846034E-001  3.75391787E-001
Al  7.48335495E-001  2.50109457E-001  5.00052737E-001
Al  8.75411223E-001  3.74334274E-001  4.99933635E-001
Al  8.75025735E-001  2.50433480E-001  6.25070181E-001
Al  7.47511673E-001  3.74951093E-001  6.24981820E-001
Al  7.49323894E-001  2.50452148E-001  7.49978670E-001
Al  8.75252874E-001  3.74964021E-001  7.50167009E-001
Al  8.77134196E-001  2.52043801E-001  8.74716215E-001
Al  7.50156870E-001  3.74696743E-001  8.72991522E-001
Al  7.51084012E-001  4.99747238E-001  1.82820614E-005
Al  8.72843789E-001  6.26699705E-001  2.90001888E-004
Al  8.74981278E-001  5.00823854E-001  1.24816485E-001
Al  7.48635914E-001  6.25008370E-001  1.22653394E-001
Al  7.48787028E-001  5.01828585E-001  2.50088060E-001
Al  8.75018171E-001  6.25872584E-001  2.49860766E-001
Al  8.74215323E-001  4.99826120E-001  3.76030915E-001
Al  7.49840707E-001  6.24857969E-001  3.74331321E-001
Al  7.49744251E-001  4.98586406E-001  5.00088959E-001
Al  8.74880471E-001  6.25935811E-001  4.99800507E-001
Al  8.72612399E-001  5.00293408E-001  6.25359289E-001
Al  7.49476934E-001  6.24990853E-001  6.25685917E-001
Al  7.48166103E-001  4.99991561E-001  7.48233385E-001
Al  8.75208875E-001  6.27413265E-001  7.49944669E-001
Al  8.77497004E-001  5.02499890E-001  8.74839559E-001
Al  7.49680182E-001  6.24875986E-001  8.72657710E-001
Al  7.52494882E-001  7.48567940E-001  -2.41963796E-003
Al  8.75423597E-001  8.76680616E-001  -1.01901198E-004
Al  8.74968760E-001  7.47615435E-001  1.24628144E-001
Al  7.48890196E-001  8.73791634E-001  1.25049862E-001
Al  7.47503168E-001  7.52420172E-001  2.51360943E-001
Al  8.75037558E-001  8.73888172E-001  2.49965255E-001
Al  8.74981068E-001  7.52225776E-001  3.74893862E-001
Al  7.49116580E-001  8.73576091E-001  3.77302374E-001
Al  7.50583872E-001  7.50150394E-001  5.00772619E-001
Al  8.72507263E-001  8.75273838E-001  5.00063283E-001
Al  8.74801916E-001  7.48317394E-001  6.25297618E-001
Al  7.48922659E-001  8.74699843E-001  6.25018244E-001
Al  7.47834692E-001  7.51701371E-001  7.50020259E-001
Al  8.74794223E-001  8.73201828E-001  7.48190808E-001
Al  8.73971772E-001  7.50018565E-001  8.74918792E-001
Al  7.52151028E-001  8.75228417E-001  8.75484178E-001
K_POINTS automatic
2 2 2 1 1 1
