&CONTROL
restart_mode = 'from_scratch',
calculation = 'scf',
outdir = '/gpfs/bb/bxp912/scratch',
pseudo_dir = '/gpfs/bb/bxp912/pseudopotentials',
prefix = '2.48000000E-001',
etot_conv_thr = 1.00000000E-007,
forc_conv_thr = 1.00000000E-007,
nstep = 200,
tprnfor = .true.,
tstress = .true.,
disk_io = 'low',
/
&SYSTEM
ibrav = 14,
celldm(1) = 3.05001797E+001,
celldm(2) = 1.00000000E+000,
celldm(3) = 1.00000000E+000,
celldm(4) = 0.00000000E+000,
celldm(5) = 0.00000000E+000,
celldm(6) = 0.00000000E+000,
nat = 256,
ntyp = 1,
ecutwfc = 35,
ecutrho = 208,
occupations = 'smearing',
smearing = 'mv',
degauss = 5.00000007E-002,
/
&ELECTRONS
diagonalization = 'david',
mixing_mode = plain,
mixing_beta = 6.99999988E-001,
conv_thr = 1.00000000E-007,
/
&IONS
ion_dynamics = 'bfgs',
/
&CELL
cell_dynamics = 'bfgs',
press = 0.00000000E+000,
cell_factor = 2.00000000E+000,
/
ATOMIC_SPECIES
Al  2.69815390E+001  Al.pbe-n-kjpaw_psl.0.1.UPF
ATOMIC_POSITIONS crystal
Al  -2.45453939E-003  1.60846222E-003  1.29795308E-004
Al  1.24907271E-001  1.26057852E-001  7.64749559E-004
Al  1.25960492E-001  -2.45447315E-003  1.26234825E-001
Al  -2.33574106E-003  1.23216380E-001  1.26942890E-001
Al  -2.26195324E-003  2.24706280E-003  2.51855709E-001
Al  1.24863905E-001  1.23683628E-001  2.50439504E-001
Al  1.25548771E-001  -2.43982215E-004  3.74866501E-001
Al  -2.08067522E-003  1.24219789E-001  3.75371019E-001
Al  2.47431581E-003  1.94938704E-005  4.98911630E-001
Al  1.22726348E-001  1.27462633E-001  4.97680724E-001
Al  1.24837259E-001  -3.60432207E-004  6.25282670E-001
Al  -1.23930173E-004  1.24849830E-001  6.25271360E-001
Al  -1.54722034E-003  -8.55023619E-004  7.47647028E-001
Al  1.22552922E-001  1.25008456E-001  7.49981866E-001
Al  1.22505189E-001  -2.42062260E-003  8.76128074E-001
Al  -2.77223546E-004  1.22681185E-001  8.76190396E-001
Al  3.29516966E-004  2.50140049E-001  8.33946659E-005
Al  1.24913267E-001  3.75884408E-001  2.65045988E-005
Al  1.27404531E-001  2.50208547E-001  1.27245902E-001
Al  1.35715711E-003  3.76795666E-001  1.24980941E-001
Al  -6.15636388E-004  2.50038755E-001  2.48043214E-001
Al  1.24752099E-001  3.74279609E-001  2.50387058E-001
Al  1.25018597E-001  2.48627790E-001  3.74938515E-001
Al  5.29044032E-005  3.75673711E-001  3.75019153E-001
Al  -5.39808785E-005  2.49391018E-001  5.00134727E-001
Al  1.24479682E-001  3.77254433E-001  5.01563867E-001
Al  1.25547437E-001  2.50067277E-001  6.27041046E-001
Al  2.41470020E-004  3.74967501E-001  6.24816519E-001
Al  -1.07532495E-003  2.50203086E-001  7.48539447E-001
Al  1.27382530E-001  3.73847627E-001  7.51746724E-001
Al  1.24991024E-001  2.49640956E-001  8.76376607E-001
Al  2.51748803E-004  3.75331399E-001  8.74195488E-001
Al  5.60127423E-004  4.98674234E-001  -2.13889901E-003
Al  1.23923268E-001  6.24477972E-001  3.41111256E-005
Al  1.24775336E-001  4.98452035E-001  1.25213266E-001
Al  6.82108705E-004  6.24600749E-001  1.26126863E-001
Al  -1.54576277E-004  4.99939707E-001  2.50704586E-001
Al  1.24954594E-001  6.25043798E-001  2.52289468E-001
Al  1.25973211E-001  4.99709168E-001  3.74991207E-001
Al  -2.03061363E-003  6.25818300E-001  3.75403612E-001
Al  -1.19500736E-004  4.99862745E-001  4.97699160E-001
Al  1.23609849E-001  6.25008816E-001  4.98990118E-001
Al  1.22531470E-001  4.98661293E-001  6.25334793E-001
Al  -2.22963970E-003  6.24797163E-001  6.23961484E-001
Al  -2.60233653E-004  4.99777289E-001  7.50019960E-001
Al  1.25939253E-001  6.24958774E-001  7.48952942E-001
Al  1.25110011E-001  5.00027644E-001  8.74490202E-001
Al  9.34159826E-004  6.25361905E-001  8.77178829E-001
Al  -1.87159630E-005  7.48825465E-001  -1.82925546E-005
Al  1.25030252E-001  8.75019194E-001  -1.64317732E-003
Al  1.23243460E-001  7.50264797E-001  1.25038145E-001
Al  -2.95731412E-004  8.73834952E-001  1.25509347E-001
Al  -2.35657228E-003  7.47506372E-001  2.50049732E-001
Al  1.24956371E-001  8.72675028E-001  2.49762192E-001
Al  1.24611802E-001  7.50179510E-001  3.75021796E-001
Al  2.39180814E-003  8.74436077E-001  3.74683019E-001
Al  -2.49991665E-003  7.48090570E-001  5.02499857E-001
Al  1.24202920E-001  8.74520168E-001  4.99801707E-001
Al  1.24991162E-001  7.52434379E-001  6.26015465E-001
Al  1.92820033E-005  8.74473346E-001  6.25484032E-001
Al  3.26481228E-005  7.49116147E-001  7.50272488E-001
Al  1.25312765E-001  8.77154215E-001  7.50018483E-001
Al  1.25699389E-001  7.50366301E-001  8.77009062E-001
Al  2.13290950E-004  8.73061477E-001  8.76981861E-001
Al  2.50019676E-001  -3.38365169E-004  2.28213773E-003
Al  3.77441332E-001  1.25073894E-001  -1.00897950E-003
Al  3.75268412E-001  6.24751886E-004  1.25285385E-001
Al  2.50008382E-001  1.25128613E-001  1.23381255E-001
Al  2.50171344E-001  2.12802771E-003  2.47559937E-001
Al  3.73966368E-001  1.24724331E-001  2.49145326E-001
Al  3.72559886E-001  -4.49441917E-004  3.75393124E-001
Al  2.49605633E-001  1.26698595E-001  3.74820952E-001
Al  2.52089651E-001  -1.53620030E-003  4.99991174E-001
Al  3.73140044E-001  1.23484672E-001  4.99974584E-001
Al  3.74981609E-001  2.48256688E-003  6.26165328E-001
Al  2.49906093E-001  1.23330381E-001  6.25029036E-001
Al  2.49068787E-001  2.49353943E-003  7.50500816E-001
Al  3.73693741E-001  1.25125690E-001  7.49981889E-001
Al  3.72752759E-001  -1.07131029E-003  8.74422881E-001
Al  2.49354996E-001  1.23823268E-001  8.74963748E-001
Al  2.47600915E-001  2.47619226E-001  1.83912163E-005
Al  3.74838449E-001  3.72505842E-001  2.89612361E-004
Al  3.75038661E-001  2.50102380E-001  1.23936930E-001
Al  2.50921151E-001  3.75009141E-001  1.24242555E-001
Al  2.49261723E-001  2.52149123E-001  2.47544620E-001
Al  3.73194499E-001  3.76020615E-001  2.52128839E-001
Al  3.75224576E-001  2.50844870E-001  3.74823983E-001
Al  2.52478083E-001  3.72507716E-001  3.72908041E-001
Al  2.49788669E-001  2.50818748E-001  4.97514372E-001
Al  3.77498536E-001  3.75018318E-001  4.99800352E-001
Al  3.72609187E-001  2.48765465E-001  6.24530746E-001
Al  2.49991626E-001  3.76579198E-001  6.23443698E-001
Al  2.51894560E-001  2.49982505E-001  7.51489216E-001
Al  3.74851323E-001  3.75009170E-001  7.50289863E-001
Al  3.76504857E-001  2.49936533E-001  8.73227203E-001
Al  2.47527204E-001  3.75951158E-001  8.76218723E-001
Al  2.51234209E-001  4.99980300E-001  -2.32436448E-005
Al  3.75008913E-001  6.23287828E-001  -3.81747882E-005
Al  3.75018977E-001  5.01931088E-001  1.24981376E-001
Al  2.47539020E-001  6.27049023E-001  1.26180548E-001
Al  2.47802337E-001  5.00123484E-001  2.51152514E-001
Al  3.72505338E-001  6.24147947E-001  2.50020222E-001
Al  3.75816946E-001  5.00244776E-001  3.76825542E-001
Al  2.49915928E-001  6.22530882E-001  3.72865350E-001
Al  2.49414267E-001  4.97604303E-001  5.01528740E-001
Al  3.72654229E-001  6.24961383E-001  5.01201148E-001
Al  3.77027411E-001  5.02130149E-001  6.27484203E-001
Al  2.49981253E-001  6.25008508E-001  6.24203574E-001
Al  2.47815663E-001  4.98990588E-001  7.50033304E-001
Al  3.76952275E-001  6.25142798E-001  7.50018148E-001
Al  3.74114890E-001  5.00939285E-001  8.77262361E-001
Al  2.47838610E-001  6.26953278E-001  8.72506282E-001
Al  2.49976211E-001  7.50907588E-001  -4.71202912E-004
Al  3.76145885E-001  8.74427001E-001  1.51576256E-003
Al  3.75169642E-001  7.48574865E-001  1.27090510E-001
Al  2.48392223E-001  8.77233438E-001  1.25452613E-001
Al  2.48502945E-001  7.49981574E-001  2.50020823E-001
Al  3.75018600E-001  8.74981740E-001  2.50311044E-001
Al  3.77483484E-001  7.50335959E-001  3.74980292E-001
Al  2.48414752E-001  8.75244864E-001  3.77412440E-001
Al  2.52348503E-001  7.49991187E-001  4.99938759E-001
Al  3.72710754E-001  8.75023473E-001  5.00032839E-001
Al  3.72661767E-001  7.48386193E-001  6.24870255E-001
Al  2.50105284E-001  8.75276539E-001  6.26898746E-001
Al  2.52436542E-001  7.50269256E-001  7.47856997E-001
Al  3.74386983E-001  8.74831123E-001  7.51533829E-001
Al  3.74051170E-001  7.47883230E-001  8.77337379E-001
Al  2.50504284E-001  8.77464441E-001  8.74228402E-001
Al  4.98297961E-001  2.44407655E-003  -5.75974302E-004
Al  6.23047607E-001  1.22504877E-001  1.02333792E-004
Al  6.24956185E-001  3.11387315E-004  1.22867122E-001
Al  4.98179237E-001  1.22502097E-001  1.26210331E-001
Al  5.01018494E-001  -2.49316674E-003  2.49893567E-001
Al  6.27367979E-001  1.24322584E-001  2.52104457E-001
Al  6.25041582E-001  -1.19220469E-004  3.77120729E-001
Al  5.02279753E-001  1.24981870E-001  3.76979945E-001
Al  4.99991629E-001  -3.21358494E-004  4.99969767E-001
Al  6.24823570E-001  1.23907246E-001  5.02495296E-001
Al  6.24875405E-001  1.89214114E-005  6.22982610E-001
Al  4.99871174E-001  1.23347036E-001  6.22589275E-001
Al  4.99976705E-001  5.96833313E-005  7.48911059E-001
Al  6.24991630E-001  1.24455544E-001  7.48571765E-001
Al  6.27154545E-001  5.94042568E-004  8.77307947E-001
Al  5.01186807E-001  1.26361476E-001  8.76820944E-001
Al  5.00122401E-001  2.50132884E-001  2.35072246E-004
Al  6.25009633E-001  3.75298893E-001  -4.21169210E-004
Al  6.25019707E-001  2.50022142E-001  1.25525775E-001
Al  4.99705723E-001  3.75008518E-001  1.25460483E-001
Al  5.00933655E-001  2.49876941E-001  2.48365281E-001
Al  6.24520689E-001  3.73031901E-001  2.47512904E-001
Al  6.24981609E-001  2.49644045E-001  3.72829042E-001
Al  4.99575273E-001  3.74977178E-001  3.72764571E-001
Al  4.99944400E-001  2.51683972E-001  4.99517948E-001
Al  6.27373259E-001  3.76654901E-001  5.02260446E-001
Al  6.27491135E-001  2.50195795E-001  6.24103900E-001
Al  5.00020025E-001  3.74425006E-001  6.24929735E-001
Al  4.99763665E-001  2.52459607E-001  7.49922777E-001
Al  6.24941201E-001  3.74962071E-001  7.47509352E-001
Al  6.24925721E-001  2.51950083E-001  8.77293181E-001
Al  5.01437915E-001  3.76293363E-001  8.73311439E-001
Al  5.02065478E-001  5.01791607E-001  4.99248673E-004
Al  6.24254393E-001  6.25757663E-001  1.60886422E-004
Al  6.25621190E-001  4.99829870E-001  1.25959372E-001
Al  4.99946140E-001  6.22803342E-001  1.27153238E-001
Al  5.01572606E-001  5.00939726E-001  2.48429875E-001
Al  6.25309554E-001  6.25462302E-001  2.48255106E-001
Al  6.22546060E-001  5.00463745E-001  3.76235237E-001
Al  5.02294990E-001  6.25095282E-001  3.72503034E-001
Al  4.98018971E-001  5.00204184E-001  4.99991601E-001
Al  6.25415239E-001  6.23241706E-001  4.97503755E-001
Al  6.22938698E-001  4.98602150E-001  6.26037800E-001
Al  5.00156127E-001  6.23914588E-001  6.24750645E-001
Al  5.00081227E-001  4.99950022E-001  7.49326337E-001
Al  6.24895775E-001  6.25050188E-001  7.50044483E-001
Al  6.22502934E-001  5.00148122E-001  8.74740255E-001
Al  4.99534893E-001  6.27498260E-001  8.74976602E-001
Al  5.02333792E-001  7.50019084E-001  1.82392265E-005
Al  6.25008393E-001  8.77496167E-001  -2.47487948E-003
Al  6.23757983E-001  7.52254572E-001  1.25419827E-001
Al  4.99881238E-001  8.74390432E-001  1.24471246E-001
Al  4.98129731E-001  7.49981890E-001  2.52270335E-001
Al  6.27473846E-001  8.74469586E-001  2.48183640E-001
Al  6.25018734E-001  7.49963919E-001  3.77284895E-001
Al  5.02067335E-001  8.72604499E-001  3.73121039E-001
Al  5.02489136E-001  7.47653492E-001  5.00037830E-001
Al  6.25306980E-001  8.74558732E-001  5.01358079E-001
Al  6.25668542E-001  7.51989524E-001  6.25019576E-001
Al  5.02451021E-001  8.73608010E-001  6.25092437E-001
Al  5.00468782E-001  7.50089510E-001  7.50429970E-001
Al  6.25009300E-001  8.76610168E-001  7.50008389E-001
Al  6.23040513E-001  7.51637435E-001  8.75254119E-001
Al  4.99055822E-001  8.72833464E-001  8.74972537E-001
Al  7.50018123E-001  -2.58095595E-004  -1.22314325E-003
Al  8.74901357E-001  1.24990697E-001  1.51236730E-004
Al  8.75018178E-001  2.30618519E-003  1.24857292E-001
Al  7.50125105E-001  1.25260133E-001  1.23501347E-001
Al  7.52417197E-001  -8.56568622E-004  2.50009181E-001
Al  8.75143093E-001  1.22733304E-001  2.47503717E-001
Al  8.75018137E-001  -2.27244257E-004  3.77310745E-001
Al  7.52303883E-001  1.25019092E-001  3.72601544E-001
Al  7.52485897E-001  2.44654161E-003  5.00021561E-001
Al  8.75059966E-001  1.22502113E-001  4.98518318E-001
Al  8.75063922E-001  1.27402701E-003  6.23067683E-001
Al  7.49651141E-001  1.26511309E-001  6.27258078E-001
Al  7.49827777E-001  -3.96601990E-004  7.52319352E-001
Al  8.75018273E-001  1.22807322E-001  7.49970588E-001
Al  8.73639349E-001  6.33750675E-004  8.75063464E-001
Al  7.50310675E-001  1.22723904E-001  8.77491966E-001
Al  7.49930382E-001  2.50028417E-001  4.12920031E-004
Al  8.72600546E-001  3.75369689E-001  -9.04241180E-004
Al  8.73838971E-001  2.50427090E-001  1.27355245E-001
Al  7.49760703E-001  3.75019709E-001  1.23003983E-001
Al  7.48663778E-001  2.49561253E-001  2.47561797E-001
Al  8.75505250E-001  3.75044985E-001  2.50106702E-001
Al  8.72518318E-001  2.50172843E-001  3.74491591E-001
Al  7.49845937E-001  3.74328276E-001  3.75703334E-001
Al  7.49167987E-001  2.50342363E-001  5.00318987E-001
Al  8.75020568E-001  3.72591084E-001  4.97601699E-001
Al  8.75043620E-001  2.50019007E-001  6.23677338E-001
Al  7.49130559E-001  3.76049969E-001  6.22621284E-001
Al  7.47501618E-001  2.50067589E-001  7.47938125E-001
Al  8.77412987E-001  3.74525802E-001  7.50019402E-001
Al  8.77471115E-001  2.50018206E-001  8.75958658E-001
Al  7.52423676E-001  3.75399799E-001  8.74991463E-001
Al  7.51124693E-001  5.00033091E-001  -1.82256242E-005
Al  8.75132560E-001  6.25494774E-001  -1.92972602E-004
Al  8.72510546E-001  5.02098823E-001  1.25134309E-001
Al  7.49684072E-001  6.22635048E-001  1.27347546E-001
Al  7.48958486E-001  4.97657177E-001  2.51833374E-001
Al  8.74795288E-001  6.25467869E-001  2.49952782E-001
Al  8.74561554E-001  4.97593281E-001  3.75019200E-001
Al  7.50055250E-001  6.25460474E-001  3.75100515E-001
Al  7.52327601E-001  5.01446092E-001  5.00329993E-001
Al  8.76896594E-001  6.23686972E-001  4.99990760E-001
Al  8.74979645E-001  5.00061212E-001  6.24741585E-001
Al  7.49889786E-001  6.24789957E-001  6.27495777E-001
Al  7.49974382E-001  4.97557925E-001  7.48540543E-001
Al  8.72819854E-001  6.23955829E-001  7.50830767E-001
Al  8.72590041E-001  4.97526816E-001  8.74962224E-001
Al  7.50048697E-001  6.22613412E-001  8.73138972E-001
Al  7.50008741E-001  7.51468726E-001  -9.80659498E-004
Al  8.74912851E-001  8.74775397E-001  -2.03491743E-004
Al  8.74375522E-001  7.51139035E-001  1.25059521E-001
Al  7.49778099E-001  8.75626351E-001  1.26535534E-001
Al  7.51759352E-001  7.52093960E-001  2.50018911E-001
Al  8.76433998E-001  8.72762837E-001  2.51115793E-001
Al  8.76200740E-001  7.50018990E-001  3.74980054E-001
Al  7.49625146E-001  8.72528381E-001  3.75330959E-001
Al  7.50043494E-001  7.51036691E-001  5.01477277E-001
Al  8.74341940E-001  8.75034960E-001  5.00074809E-001
Al  8.74788827E-001  7.49895065E-001  6.24527316E-001
Al  7.50018112E-001  8.74969125E-001  6.26771398E-001
Al  7.50743684E-001  7.51167672E-001  7.50713492E-001
Al  8.74891073E-001  8.74461961E-001  7.50703000E-001
Al  8.72743076E-001  7.49792695E-001  8.75008656E-001
Al  7.50230707E-001  8.75009847E-001  8.73205463E-001
K_POINTS automatic
2 2 2 1 1 1
