&CONTROL
restart_mode = 'from_scratch',
calculation = 'scf',
outdir = '/gpfs/bb/bxp912/scratch',
pseudo_dir = '/gpfs/bb/bxp912/pseudopotentials',
prefix = '2.48000000E-001',
etot_conv_thr = 1.00000000E-007,
forc_conv_thr = 1.00000000E-007,
nstep = 200,
tprnfor = .true.,
tstress = .true.,
disk_io = 'low',
/
&SYSTEM
ibrav = 14,
celldm(1) = 3.05001797E+001,
celldm(2) = 1.00000000E+000,
celldm(3) = 1.00000000E+000,
celldm(4) = 0.00000000E+000,
celldm(5) = 0.00000000E+000,
celldm(6) = 0.00000000E+000,
nat = 256,
ntyp = 1,
ecutwfc = 35,
ecutrho = 208,
occupations = 'smearing',
smearing = 'mv',
degauss = 5.00000007E-002,
/
&ELECTRONS
diagonalization = 'david',
mixing_mode = plain,
mixing_beta = 6.99999988E-001,
conv_thr = 1.00000000E-007,
/
&IONS
ion_dynamics = 'bfgs',
/
&CELL
cell_dynamics = 'bfgs',
press = 0.00000000E+000,
cell_factor = 2.00000000E+000,
/
ATOMIC_SPECIES
Al  2.69815390E+001  Al.pbe-n-kjpaw_psl.0.1.UPF
ATOMIC_POSITIONS crystal
Al  -2.05978499E-003  -6.01848007E-004  -1.58445828E-004
Al  1.22535402E-001  1.24991598E-001  8.24524011E-005
Al  1.27354827E-001  -1.82803361E-004  1.26403365E-001
Al  -5.53339157E-005  1.22538942E-001  1.24480445E-001
Al  1.06382213E-003  -1.96344860E-003  2.49815104E-001
Al  1.24915918E-001  1.22740361E-001  2.52053500E-001
Al  1.27446880E-001  1.83184775E-003  3.75020175E-001
Al  -1.65750286E-004  1.25361376E-001  3.73027179E-001
Al  -1.42001849E-003  1.76938289E-003  4.99956309E-001
Al  1.25178886E-001  1.23774118E-001  5.02106201E-001
Al  1.24953737E-001  -1.34812711E-003  6.24982860E-001
Al  4.42235774E-004  1.24991280E-001  6.25600233E-001
Al  -2.40446697E-003  1.39862205E-003  7.47749522E-001
Al  1.24302723E-001  1.24991333E-001  7.49914143E-001
Al  1.24935411E-001  -2.28437869E-003  8.76957240E-001
Al  -1.81074080E-005  1.23037058E-001  8.76234425E-001
Al  -1.81645878E-005  2.49337122E-001  -2.21450247E-003
Al  1.24848553E-001  3.75008456E-001  -3.11526415E-004
Al  1.24672943E-001  2.50032560E-001  1.22580961E-001
Al  4.59025387E-004  3.75039678E-001  1.24849449E-001
Al  -2.33651120E-003  2.49976125E-001  2.49323707E-001
Al  1.24973649E-001  3.74654738E-001  2.47536411E-001
Al  1.22532447E-001  2.51614236E-001  3.77282386E-001
Al  1.97536395E-003  3.73365088E-001  3.75584519E-001
Al  1.98440216E-003  2.51431468E-001  4.99991309E-001
Al  1.26316936E-001  3.74897746E-001  4.99890815E-001
Al  1.27493195E-001  2.49411324E-001  6.23651068E-001
Al  9.62836370E-005  3.75327567E-001  6.25018201E-001
Al  -4.53774008E-004  2.50787479E-001  7.48030832E-001
Al  1.25008937E-001  3.73404542E-001  7.51857861E-001
Al  1.22524861E-001  2.49981454E-001  8.75008389E-001
Al  2.89154774E-005  3.72505738E-001  8.75432375E-001
Al  1.43356354E-004  4.99981454E-001  -1.72269712E-003
Al  1.22635769E-001  6.25624872E-001  -4.27673819E-004
Al  1.25021011E-001  4.99978719E-001  1.25040764E-001
Al  2.14901158E-003  6.23328468E-001  1.22521291E-001
Al  -8.01644623E-004  4.99475942E-001  2.49981785E-001
Al  1.26162150E-001  6.24991386E-001  2.48416496E-001
Al  1.25117971E-001  5.01978058E-001  3.73910939E-001
Al  1.75385009E-003  6.22558651E-001  3.74919857E-001
Al  -2.17370093E-003  4.99583681E-001  5.00505515E-001
Al  1.25044185E-001  6.23884968E-001  5.01837109E-001
Al  1.27493723E-001  4.98619378E-001  6.27498320E-001
Al  -6.92618525E-005  6.22996874E-001  6.25935635E-001
Al  2.46299406E-003  4.98354333E-001  7.50957268E-001
Al  1.26772692E-001  6.23130649E-001  7.49947064E-001
Al  1.27365750E-001  4.98781645E-001  8.76525782E-001
Al  -8.90440132E-004  6.25476758E-001  8.77431565E-001
Al  6.42212972E-004  7.50120153E-001  2.33726081E-003
Al  1.24433974E-001  8.73734773E-001  -1.12588704E-003
Al  1.27383563E-001  7.50083404E-001  1.24953493E-001
Al  1.22129984E-004  8.76286560E-001  1.24928932E-001
Al  6.31863472E-004  7.48812548E-001  2.52495906E-001
Al  1.25608750E-001  8.73585753E-001  2.47732860E-001
Al  1.22818296E-001  7.49990797E-001  3.75680480E-001
Al  1.33046868E-004  8.75054496E-001  3.75019514E-001
Al  -2.33268119E-003  7.49331803E-001  4.99840354E-001
Al  1.24601634E-001  8.73590908E-001  4.99283205E-001
Al  1.22882021E-001  7.49991029E-001  6.25351676E-001
Al  -1.11862471E-004  8.74734587E-001  6.24960267E-001
Al  7.90731283E-004  7.47718594E-001  7.50482935E-001
Al  1.24573322E-001  8.72812025E-001  7.48441587E-001
Al  1.24757229E-001  7.50048817E-001  8.74944295E-001
Al  2.07113873E-003  8.74540255E-001  8.76780864E-001
Al  2.50187553E-001  -2.37823744E-004  8.41682188E-006
Al  3.75702129E-001  1.23095892E-001  9.93021223E-004
Al  3.74848116E-001  8.82945153E-006  1.25008496E-001
Al  2.51778716E-001  1.25361233E-001  1.27416270E-001
Al  2.49928837E-001  2.44128781E-003  2.51273993E-001
Al  3.74729699E-001  1.27469864E-001  2.48603197E-001
Al  3.74990246E-001  -2.49998267E-003  3.75115513E-001
Al  2.48948433E-001  1.23882035E-001  3.76849570E-001
Al  2.50023621E-001  7.02488178E-005  4.98180244E-001
Al  3.76555235E-001  1.26628796E-001  5.01762022E-001
Al  3.74789512E-001  -1.22715371E-003  6.24970664E-001
Al  2.50498450E-001  1.23819808E-001  6.26192905E-001
Al  2.49980011E-001  -1.90632587E-003  7.49265224E-001
Al  3.77499977E-001  1.25018458E-001  7.52184430E-001
Al  3.75134196E-001  -2.46464582E-003  8.77499195E-001
Al  2.49970722E-001  1.22502380E-001  8.76464406E-001
Al  2.52483460E-001  2.49991539E-001  6.65263085E-005
Al  3.77493798E-001  3.75053609E-001  1.27375083E-003
Al  3.73140041E-001  2.47532243E-001  1.24911423E-001
Al  2.52247202E-001  3.76034163E-001  1.25074872E-001
Al  2.49465896E-001  2.50038255E-001  2.51408526E-001
Al  3.73052031E-001  3.75387208E-001  2.49990758E-001
Al  3.74712615E-001  2.51952700E-001  3.77375688E-001
Al  2.50653612E-001  3.75871950E-001  3.74113609E-001
Al  2.50019708E-001  2.49025563E-001  4.97501499E-001
Al  3.73828321E-001  3.76683147E-001  4.99990896E-001
Al  3.73729512E-001  2.51016347E-001  6.22913206E-001
Al  2.49952946E-001  3.73343003E-001  6.24505229E-001
Al  2.49981517E-001  2.49991606E-001  7.50055838E-001
Al  3.74835127E-001  3.75077406E-001  7.49056480E-001
Al  3.75032183E-001  2.49661294E-001  8.72637350E-001
Al  2.48690171E-001  3.75268790E-001  8.72723703E-001
Al  2.52254293E-001  4.97572530E-001  2.72298205E-004
Al  3.75099046E-001  6.25087452E-001  1.14131616E-003
Al  3.75699677E-001  5.00145831E-001  1.26124015E-001
Al  2.51957224E-001  6.26553277E-001  1.25900465E-001
Al  2.49683511E-001  5.00344483E-001  2.49883153E-001
Al  3.73467066E-001  6.26890431E-001  2.49990477E-001
Al  3.77447471E-001  5.02337757E-001  3.74991031E-001
Al  2.49774789E-001  6.23356426E-001  3.76644850E-001
Al  2.49815787E-001  4.99991548E-001  4.97655713E-001
Al  3.72917300E-001  6.25842117E-001  4.98211935E-001
Al  3.72500476E-001  4.99828736E-001  6.24690905E-001
Al  2.51328793E-001  6.24479617E-001  6.22591600E-001
Al  2.49199183E-001  4.98293140E-001  7.50654013E-001
Al  3.72734383E-001  6.25111355E-001  7.49958027E-001
Al  3.74532385E-001  5.00324266E-001  8.76301387E-001
Al  2.50169240E-001  6.24952965E-001  8.75340667E-001
Al  2.49846065E-001  7.48883300E-001  -1.29047287E-004
Al  3.72642390E-001  8.76314086E-001  2.79830191E-005
Al  3.74944905E-001  7.52296446E-001  1.24991585E-001
Al  2.50127948E-001  8.72512525E-001  1.24340987E-001
Al  2.49692562E-001  7.50600955E-001  2.50018310E-001
Al  3.73858448E-001  8.73352268E-001  2.48618461E-001
Al  3.76205546E-001  7.50299496E-001  3.76811164E-001
Al  2.49981884E-001  8.73516262E-001  3.75018403E-001
Al  2.51387578E-001  7.52372432E-001  4.98093382E-001
Al  3.77483630E-001  8.74976962E-001  5.02281136E-001
Al  3.76951842E-001  7.47858265E-001  6.25678520E-001
Al  2.48158323E-001  8.75925574E-001  6.25018454E-001
Al  2.50532420E-001  7.49827304E-001  7.52375614E-001
Al  3.75080588E-001  8.75008839E-001  7.48549861E-001
Al  3.75018563E-001  7.50771294E-001  8.76740034E-001
Al  2.47506651E-001  8.74981845E-001  8.77499985E-001
Al  4.99442565E-001  -2.36673573E-003  -9.88630372E-004
Al  6.26743038E-001  1.25039527E-001  2.09287653E-003
Al  6.26096660E-001  -1.90013428E-003  1.24850649E-001
Al  4.99493038E-001  1.24991551E-001  1.24930589E-001
Al  4.98754803E-001  -1.52174180E-003  2.50018690E-001
Al  6.25677612E-001  1.23627814E-001  2.50008783E-001
Al  6.25018263E-001  1.19557201E-004  3.75018115E-001
Al  5.00070805E-001  1.24334859E-001  3.74959067E-001
Al  4.98950702E-001  -1.86868473E-005  5.02474815E-001
Al  6.24975172E-001  1.25105061E-001  5.00401909E-001
Al  6.25166639E-001  -3.60261043E-004  6.25196523E-001
Al  4.99526518E-001  1.25008479E-001  6.24991630E-001
Al  5.02498417E-001  2.45849982E-003  7.51307047E-001
Al  6.22506465E-001  1.23756635E-001  7.50020188E-001
Al  6.24950518E-001  3.18364093E-004  8.74675458E-001
Al  4.99806595E-001  1.22602211E-001  8.73372900E-001
Al  5.01893309E-001  2.50050721E-001  -2.70571785E-005
Al  6.27421158E-001  3.74981829E-001  1.78753621E-003
Al  6.25365770E-001  2.50510279E-001  1.25536885E-001
Al  4.99558159E-001  3.74956414E-001  1.23097942E-001
Al  5.00018207E-001  2.50701040E-001  2.50008448E-001
Al  6.25043559E-001  3.75812952E-001  2.50581474E-001
Al  6.22737651E-001  2.52386080E-001  3.77198786E-001
Al  4.98002701E-001  3.75716599E-001  3.75547580E-001
Al  5.00705759E-001  2.50086605E-001  5.00025685E-001
Al  6.24561787E-001  3.75160840E-001  5.00022525E-001
Al  6.24991307E-001  2.51052461E-001  6.24625797E-001
Al  4.98748860E-001  3.75360980E-001  6.22861940E-001
Al  4.99981012E-001  2.49991124E-001  7.49878506E-001
Al  6.24811026E-001  3.74907497E-001  7.49991601E-001
Al  6.23733500E-001  2.50159382E-001  8.75692674E-001
Al  5.01280600E-001  3.73399907E-001  8.72927409E-001
Al  4.97529801E-001  4.99707547E-001  1.37444413E-003
Al  6.24229166E-001  6.24655666E-001  9.85213390E-005
Al  6.22533218E-001  4.99991618E-001  1.24953709E-001
Al  4.98355090E-001  6.25198757E-001  1.24770645E-001
Al  4.99981880E-001  5.00827141E-001  2.50603551E-001
Al  6.25211519E-001  6.23857394E-001  2.49981876E-001
Al  6.23868469E-001  5.01605264E-001  3.74487051E-001
Al  4.99704125E-001  6.27271542E-001  3.74275678E-001
Al  4.98315104E-001  4.98378762E-001  5.02493612E-001
Al  6.24495088E-001  6.24956478E-001  4.97710118E-001
Al  6.25031786E-001  4.98365548E-001  6.22688262E-001
Al  4.99463980E-001  6.24967983E-001  6.22645226E-001
Al  4.99716418E-001  5.02180482E-001  7.50059485E-001
Al  6.22762361E-001  6.25019568E-001  7.49991349E-001
Al  6.25282611E-001  4.99980861E-001  8.75026349E-001
Al  4.97520620E-001  6.24091735E-001  8.76934289E-001
Al  5.00008801E-001  7.50008542E-001  -5.56310125E-004
Al  6.25042205E-001  8.75373767E-001  -7.42058551E-004
Al  6.24430486E-001  7.49978845E-001  1.26917121E-001
Al  5.02456069E-001  8.77369425E-001  1.25601044E-001
Al  4.98061939E-001  7.51919005E-001  2.49369097E-001
Al  6.27219772E-001  8.72531984E-001  2.50052505E-001
Al  6.25198452E-001  7.50819611E-001  3.73210892E-001
Al  4.99975810E-001  8.72939933E-001  3.74608087E-001
Al  4.99143029E-001  7.50032146E-001  4.99024081E-001
Al  6.24981157E-001  8.74945532E-001  5.00907324E-001
Al  6.24955169E-001  7.49676614E-001  6.25019123E-001
Al  4.98324073E-001  8.76968569E-001  6.25033305E-001
Al  5.02285879E-001  7.47943670E-001  7.49991627E-001
Al  6.27314036E-001  8.76570003E-001  7.48704454E-001
Al  6.24841150E-001  7.48902844E-001  8.72519893E-001
Al  4.98206117E-001  8.74948292E-001  8.77093079E-001
Al  7.47546501E-001  3.45075219E-004  -2.11803774E-003
Al  8.74981798E-001  1.22745229E-001  8.41102790E-006
Al  8.74716442E-001  -9.72074354E-004  1.24976791E-001
Al  7.50117726E-001  1.24864151E-001  1.23798082E-001
Al  7.50638961E-001  1.06144259E-003  2.48339647E-001
Al  8.72833872E-001  1.23777277E-001  2.50168903E-001
Al  8.77344040E-001  4.34748682E-004  3.75045111E-001
Al  7.50605420E-001  1.24981723E-001  3.75050689E-001
Al  7.52415673E-001  -2.36952430E-003  5.00725727E-001
Al  8.75122104E-001  1.27435602E-001  5.01348565E-001
Al  8.75470584E-001  4.19821345E-005  6.27135699E-001
Al  7.50883245E-001  1.25287229E-001  6.26509014E-001
Al  7.49981565E-001  -9.31931816E-006  7.48216873E-001
Al  8.75333915E-001  1.24712636E-001  7.52309539E-001
Al  8.75026962E-001  1.85442771E-004  8.76090123E-001
Al  7.48036022E-001  1.22535635E-001  8.77422318E-001
Al  7.49629872E-001  2.50031901E-001  -1.93898724E-003
Al  8.77479486E-001  3.74978474E-001  -2.49795315E-003
Al  8.74943818E-001  2.49991320E-001  1.24963735E-001
Al  7.50361323E-001  3.74614797E-001  1.24092895E-001
Al  7.49156861E-001  2.52465993E-001  2.47503497E-001
Al  8.75043047E-001  3.76413049E-001  2.47530791E-001
Al  8.74981507E-001  2.49309135E-001  3.75019761E-001
Al  7.49705375E-001  3.74674283E-001  3.76896795E-001
Al  7.49991620E-001  2.50042601E-001  4.99932564E-001
Al  8.75570907E-001  3.72911661E-001  5.02206255E-001
Al  8.74109685E-001  2.49085943E-001  6.24901274E-001
Al  7.47696570E-001  3.72760330E-001  6.22505330E-001
Al  7.49678172E-001  2.48960344E-001  7.51114272E-001
Al  8.72774715E-001  3.74900555E-001  7.51369143E-001
Al  8.74461839E-001  2.47598400E-001  8.77455661E-001
Al  7.48669108E-001  3.74911603E-001  8.75873151E-001
Al  7.48278099E-001  5.01850870E-001  1.46586245E-003
Al  8.74972049E-001  6.27384767E-001  7.56864693E-005
Al  8.75271733E-001  4.99979884E-001  1.24064012E-001
Al  7.48921967E-001  6.26964497E-001  1.23051120E-001
Al  7.48854846E-001  4.99980669E-001  2.49980959E-001
Al  8.74781712E-001  6.27373312E-001  2.52268243E-001
Al  8.72868752E-001  5.00363738E-001  3.77385225E-001
Al  7.49552904E-001  6.24080104E-001  3.73951327E-001
Al  7.48961299E-001  5.02184809E-001  5.01038127E-001
Al  8.77425228E-001  6.25008506E-001  4.98873450E-001
Al  8.75026157E-001  5.00021133E-001  6.25791489E-001
Al  7.49960625E-001  6.25064951E-001  6.26496799E-001
Al  7.48970373E-001  5.00468093E-001  7.48281190E-001
Al  8.74981198E-001  6.25023196E-001  7.50558343E-001
Al  8.74975957E-001  5.00265905E-001  8.72945384E-001
Al  7.49787099E-001  6.25891706E-001  8.74427259E-001
Al  7.49960842E-001  7.50028611E-001  -8.81792481E-005
Al  8.75956756E-001  8.75897934E-001  2.26769863E-003
Al  8.75159707E-001  7.51572618E-001  1.22607053E-001
Al  7.49958362E-001  8.75018515E-001  1.22966642E-001
Al  7.52462509E-001  7.49395326E-001  2.47933780E-001
Al  8.72949473E-001  8.75644244E-001  2.52433968E-001
Al  8.76675476E-001  7.49745383E-001  3.75241275E-001
Al  7.52042647E-001  8.74991342E-001  3.74980123E-001
Al  7.50968260E-001  7.50029993E-001  5.02233922E-001
Al  8.72500019E-001  8.75028259E-001  4.99990872E-001
Al  8.76349523E-001  7.47584647E-001  6.24412111E-001
Al  7.50522672E-001  8.75085264E-001  6.27472893E-001
Al  7.49965633E-001  7.52357056E-001  7.49990926E-001
Al  8.74618093E-001  8.75129692E-001  7.48776900E-001
Al  8.74055201E-001  7.47635459E-001  8.72971084E-001
Al  7.49824331E-001  8.76157165E-001  8.74981148E-001
K_POINTS automatic
2 2 2 1 1 1
