&CONTROL
restart_mode = 'from_scratch',
calculation = 'scf',
outdir = '/gpfs/bb/bxp912/scratch',
pseudo_dir = '/gpfs/bb/bxp912/pseudopotentials',
prefix = '2.48000000E-001',
etot_conv_thr = 1.00000000E-007,
forc_conv_thr = 1.00000000E-007,
nstep = 200,
tprnfor = .true.,
tstress = .true.,
disk_io = 'low',
/
&SYSTEM
ibrav = 14,
celldm(1) = 3.05001797E+001,
celldm(2) = 1.00000000E+000,
celldm(3) = 1.00000000E+000,
celldm(4) = 0.00000000E+000,
celldm(5) = 0.00000000E+000,
celldm(6) = 0.00000000E+000,
nat = 256,
ntyp = 1,
ecutwfc = 35,
ecutrho = 208,
occupations = 'smearing',
smearing = 'mv',
degauss = 5.00000007E-002,
/
&ELECTRONS
diagonalization = 'david',
mixing_mode = plain,
mixing_beta = 6.99999988E-001,
conv_thr = 1.00000000E-007,
/
&IONS
ion_dynamics = 'bfgs',
/
&CELL
cell_dynamics = 'bfgs',
press = 0.00000000E+000,
cell_factor = 2.00000000E+000,
/
ATOMIC_SPECIES
Al  2.69815390E+001  Al.pbe-n-kjpaw_psl.0.1.UPF
ATOMIC_POSITIONS crystal
Al  -7.07087305E-004  -1.83946407E-004  -3.02819838E-005
Al  1.25046829E-001  1.22754680E-001  -4.71682558E-004
Al  1.24565402E-001  -2.56611139E-004  1.24872327E-001
Al  -1.97097858E-004  1.25312590E-001  1.25510045E-001
Al  -2.94061660E-005  3.92937935E-004  2.47672896E-001
Al  1.25113152E-001  1.24539201E-001  2.51088593E-001
Al  1.27499229E-001  1.71247095E-005  3.75407428E-001
Al  3.40853042E-004  1.24481570E-001  3.75778942E-001
Al  -9.31887551E-004  -6.09412692E-005  5.01835932E-001
Al  1.25019991E-001  1.25609129E-001  5.00092828E-001
Al  1.23400096E-001  -8.37119920E-006  6.25098537E-001
Al  -9.94038284E-004  1.25342610E-001  6.24809101E-001
Al  2.07219960E-003  2.58469482E-004  7.49980822E-001
Al  1.24854408E-001  1.25060590E-001  7.50547344E-001
Al  1.25048066E-001  -6.09123231E-004  8.72664928E-001
Al  6.57326826E-005  1.25785392E-001  8.74338407E-001
Al  1.44472213E-004  2.47644184E-001  -5.16886183E-004
Al  1.23336221E-001  3.75052005E-001  1.84651226E-005
Al  1.24704048E-001  2.49401824E-001  1.22595077E-001
Al  2.15246399E-003  3.74991333E-001  1.24647113E-001
Al  -8.91531708E-006  2.48366402E-001  2.49404520E-001
Al  1.27177987E-001  3.75880309E-001  2.49964897E-001
Al  1.22527159E-001  2.49685477E-001  3.74958792E-001
Al  2.32665031E-003  3.76592897E-001  3.74375120E-001
Al  -2.29429526E-003  2.48091954E-001  5.00018134E-001
Al  1.26277812E-001  3.72895036E-001  5.01950100E-001
Al  1.24957770E-001  2.49877800E-001  6.24811195E-001
Al  -2.31456651E-003  3.74776697E-001  6.27481257E-001
Al  -1.47014698E-003  2.49762749E-001  7.47514462E-001
Al  1.23779275E-001  3.74954327E-001  7.47673828E-001
Al  1.27087854E-001  2.49731391E-001  8.74955392E-001
Al  1.66730446E-004  3.74942160E-001  8.75776511E-001
Al  1.79723123E-003  4.99971345E-001  -2.34773454E-004
Al  1.26835471E-001  6.27105861E-001  8.85640247E-004
Al  1.23388897E-001  4.99854003E-001  1.22668302E-001
Al  -1.79096257E-003  6.27128410E-001  1.25045806E-001
Al  1.45208315E-003  4.99331912E-001  2.50018516E-001
Al  1.23486882E-001  6.22711956E-001  2.52486949E-001
Al  1.25489870E-001  4.99981037E-001  3.74895508E-001
Al  2.45287069E-003  6.25270729E-001  3.74683606E-001
Al  -9.40309217E-005  4.98619540E-001  4.98025477E-001
Al  1.25018309E-001  6.27007603E-001  4.99919720E-001
Al  1.23747162E-001  5.00576142E-001  6.24991628E-001
Al  -8.35749640E-004  6.26861743E-001  6.26093606E-001
Al  2.24456760E-003  5.01543775E-001  7.50317184E-001
Al  1.24775708E-001  6.25037733E-001  7.49062588E-001
Al  1.25008416E-001  5.00074916E-001  8.76088886E-001
Al  2.13616122E-003  6.24978771E-001  8.74930396E-001
Al  -1.12220028E-004  7.49797373E-001  2.37975284E-005
Al  1.24981739E-001  8.75400324E-001  6.62473421E-004
Al  1.24583581E-001  7.50361383E-001  1.23772916E-001
Al  -2.26831480E-003  8.74979602E-001  1.26798225E-001
Al  -1.56496739E-004  7.49790670E-001  2.49981878E-001
Al  1.25176487E-001  8.75008603E-001  2.51651285E-001
Al  1.27173463E-001  7.47772941E-001  3.75290764E-001
Al  -6.02853394E-004  8.74991243E-001  3.74596351E-001
Al  -1.20570403E-003  7.49950984E-001  5.00063716E-001
Al  1.26727723E-001  8.74185233E-001  4.99606401E-001
Al  1.25982916E-001  7.49834782E-001  6.23736979E-001
Al  -1.19522427E-004  8.77392391E-001  6.22690802E-001
Al  1.80419352E-003  7.48814940E-001  7.47512732E-001
Al  1.24981703E-001  8.74763895E-001  7.50113144E-001
Al  1.24006971E-001  7.50107836E-001  8.76703340E-001
Al  9.51412210E-004  8.75025867E-001  8.74833081E-001
Al  2.49980648E-001  -2.13023711E-004  -1.81753165E-004
Al  3.74981808E-001  1.22723756E-001  2.13497876E-003
Al  3.74981121E-001  -8.38143644E-006  1.24880765E-001
Al  2.49897900E-001  1.24935711E-001  1.22510375E-001
Al  2.50166394E-001  -1.11568076E-003  2.51012033E-001
Al  3.73419542E-001  1.27499785E-001  2.49950647E-001
Al  3.75018246E-001  -1.96760249E-003  3.74649336E-001
Al  2.49886598E-001  1.24981689E-001  3.74124113E-001
Al  2.51198758E-001  -8.45399005E-004  5.01776385E-001
Al  3.75451444E-001  1.25287749E-001  4.97716159E-001
Al  3.74981848E-001  1.37194211E-003  6.24296200E-001
Al  2.48912122E-001  1.24884134E-001  6.25539123E-001
Al  2.50840883E-001  9.39902376E-004  7.50075468E-001
Al  3.75079536E-001  1.24157223E-001  7.50156057E-001
Al  3.77375635E-001  -9.42642399E-004  8.75236014E-001
Al  2.50506303E-001  1.22648280E-001  8.75282078E-001
Al  2.52316609E-001  2.51497504E-001  2.52482308E-004
Al  3.75008692E-001  3.74956174E-001  9.53949117E-004
Al  3.75353736E-001  2.47922764E-001  1.24963342E-001
Al  2.50025751E-001  3.77304302E-001  1.22617687E-001
Al  2.49634691E-001  2.50180917E-001  2.48497440E-001
Al  3.72729270E-001  3.77235358E-001  2.50054755E-001
Al  3.75475656E-001  2.49963380E-001  3.76890443E-001
Al  2.52390847E-001  3.75278208E-001  3.74990889E-001
Al  2.52482203E-001  2.49949299E-001  5.02469229E-001
Al  3.75448183E-001  3.75621530E-001  4.98605300E-001
Al  3.74649730E-001  2.50312117E-001  6.23513669E-001
Al  2.49869497E-001  3.75018418E-001  6.22535211E-001
Al  2.50051952E-001  2.49436733E-001  7.51586911E-001
Al  3.75030488E-001  3.75056363E-001  7.49991593E-001
Al  3.75760952E-001  2.49367754E-001  8.75008439E-001
Al  2.50978677E-001  3.75008801E-001  8.73291404E-001
Al  2.52451938E-001  5.02099879E-001  4.08027775E-004
Al  3.73154570E-001  6.23811394E-001  -1.47340057E-004
Al  3.75017200E-001  5.00107413E-001  1.27499276E-001
Al  2.48738875E-001  6.25636768E-001  1.24399634E-001
Al  2.48906359E-001  5.00319656E-001  2.48575075E-001
Al  3.75018184E-001  6.25121188E-001  2.48748845E-001
Al  3.74747785E-001  5.00008453E-001  3.76605630E-001
Al  2.51041875E-001  6.27089632E-001  3.75033818E-001
Al  2.49949488E-001  4.99674196E-001  4.98556776E-001
Al  3.74429665E-001  6.23931915E-001  5.00008384E-001
Al  3.72878262E-001  5.02299775E-001  6.24625483E-001
Al  2.50178238E-001  6.24350473E-001  6.24960595E-001
Al  2.49010171E-001  4.98541107E-001  7.49356261E-001
Al  3.75102179E-001  6.24967256E-001  7.49849421E-001
Al  3.75292547E-001  5.00154128E-001  8.74786238E-001
Al  2.50352782E-001  6.24923292E-001  8.74990947E-001
Al  2.47559487E-001  7.50366197E-001  1.51478227E-003
Al  3.76195611E-001  8.73138482E-001  -1.10943362E-003
Al  3.74823487E-001  7.50008517E-001  1.24647376E-001
Al  2.50008909E-001  8.77012817E-001  1.27471851E-001
Al  2.50017342E-001  7.50074739E-001  2.50885727E-001
Al  3.74929306E-001  8.74296245E-001  2.47512101E-001
Al  3.72547496E-001  7.52499227E-001  3.73797158E-001
Al  2.50779718E-001  8.75018902E-001  3.76654353E-001
Al  2.50018108E-001  7.52384468E-001  4.97931943E-001
Al  3.77258741E-001  8.75463217E-001  4.99170532E-001
Al  3.75271645E-001  7.47849538E-001  6.27470419E-001
Al  2.51483289E-001  8.74991339E-001  6.25065775E-001
Al  2.50862266E-001  7.47687119E-001  7.49973423E-001
Al  3.77238071E-001  8.73801863E-001  7.52086317E-001
Al  3.75087625E-001  7.48431267E-001  8.75008591E-001
Al  2.49616835E-001  8.75280411E-001  8.73931789E-001
Al  5.00008953E-001  -4.59152994E-005  -8.37977591E-006
Al  6.23730201E-001  1.24981848E-001  1.99195373E-003
Al  6.24913593E-001  -6.36036463E-004  1.25733519E-001
Al  4.98377449E-001  1.27480562E-001  1.25109969E-001
Al  5.00508454E-001  1.68566615E-003  2.50052275E-001
Al  6.23428463E-001  1.26948169E-001  2.49703925E-001
Al  6.25836301E-001  6.21261111E-004  3.76602616E-001
Al  4.99991365E-001  1.27354927E-001  3.77303809E-001
Al  4.99175115E-001  2.13186974E-003  4.98472943E-001
Al  6.24981738E-001  1.23613744E-001  5.00046183E-001
Al  6.24854824E-001  -1.97538027E-003  6.25022275E-001
Al  5.00638158E-001  1.25682972E-001  6.26512309E-001
Al  5.00067589E-001  -6.88089260E-004  7.49655799E-001
Al  6.24981418E-001  1.25008434E-001  7.50071964E-001
Al  6.23270936E-001  7.04548594E-004  8.75310628E-001
Al  4.97820059E-001  1.25300589E-001  8.76315550E-001
Al  4.99929341E-001  2.50122089E-001  1.34982824E-003
Al  6.25020269E-001  3.73978779E-001  -1.24333384E-003
Al  6.24663003E-001  2.48605065E-001  1.25101696E-001
Al  4.99810943E-001  3.73928157E-001  1.23954730E-001
Al  5.02295064E-001  2.50018107E-001  2.50302285E-001
Al  6.25018369E-001  3.77372456E-001  2.49929872E-001
Al  6.25806864E-001  2.49863062E-001  3.76095613E-001
Al  5.02084935E-001  3.75128763E-001  3.74976971E-001
Al  5.00018669E-001  2.50229659E-001  4.97762480E-001
Al  6.24197479E-001  3.76677032E-001  4.99649301E-001
Al  6.24698605E-001  2.49744729E-001  6.24018605E-001
Al  5.01722513E-001  3.75018135E-001  6.26148780E-001
Al  5.00363343E-001  2.49476758E-001  7.52203891E-001
Al  6.25018122E-001  3.72569243E-001  7.48685580E-001
Al  6.24942303E-001  2.51653690E-001  8.75072654E-001
Al  5.00697979E-001  3.77297410E-001  8.77438133E-001
Al  4.98558052E-001  5.00020697E-001  -2.05695148E-005
Al  6.24773237E-001  6.24980690E-001  -1.39807521E-004
Al  6.25262262E-001  5.02368463E-001  1.25018571E-001
Al  5.02499942E-001  6.24952668E-001  1.23928858E-001
Al  5.00020076E-001  5.00376617E-001  2.49851199E-001
Al  6.23266790E-001  6.25062839E-001  2.50484211E-001
Al  6.24981519E-001  5.02427111E-001  3.72570088E-001
Al  5.02207121E-001  6.24968026E-001  3.77395901E-001
Al  4.99929619E-001  4.99952707E-001  5.00089141E-001
Al  6.24793620E-001  6.25909233E-001  5.01839618E-001
Al  6.24959092E-001  5.00018321E-001  6.25926708E-001
Al  4.97505927E-001  6.23862864E-001  6.23851392E-001
Al  5.00703013E-001  4.97832036E-001  7.50019710E-001
Al  6.24702219E-001  6.25018280E-001  7.47530792E-001
Al  6.22545737E-001  5.01414432E-001  8.72753595E-001
Al  4.99710790E-001  6.23731178E-001  8.75076265E-001
Al  4.97544682E-001  7.50238410E-001  -4.03263350E-004
Al  6.22640616E-001  8.75939905E-001  -2.24942050E-003
Al  6.27278425E-001  7.51272687E-001  1.24445561E-001
Al  5.00018588E-001  8.75132977E-001  1.24878894E-001
Al  5.01729569E-001  7.49991596E-001  2.49973832E-001
Al  6.22696552E-001  8.75457153E-001  2.51879246E-001
Al  6.25009829E-001  7.50237527E-001  3.74933064E-001
Al  5.01738581E-001  8.73150769E-001  3.75018247E-001
Al  5.00307588E-001  7.50862143E-001  4.99981775E-001
Al  6.24981846E-001  8.74815440E-001  4.99981677E-001
Al  6.27064324E-001  7.50503849E-001  6.24991372E-001
Al  4.99793665E-001  8.74906470E-001  6.24981112E-001
Al  4.99862407E-001  7.49489578E-001  7.50019158E-001
Al  6.23455789E-001  8.75268419E-001  7.51560079E-001
Al  6.25062246E-001  7.50672076E-001  8.74505496E-001
Al  4.98093757E-001  8.75492572E-001  8.75051585E-001
Al  7.50326737E-001  1.18907381E-003  1.08080866E-003
Al  8.74991622E-001  1.24857988E-001  -1.10997157E-004
Al  8.72923659E-001  -2.21205223E-003  1.24535272E-001
Al  7.49979206E-001  1.23854904E-001  1.22964713E-001
Al  7.50008825E-001  -1.82157936E-005  2.48870889E-001
Al  8.74981422E-001  1.25019371E-001  2.51900728E-001
Al  8.74977544E-001  8.13678956E-004  3.76419493E-001
Al  7.50177664E-001  1.23013396E-001  3.75054051E-001
Al  7.49974666E-001  1.92596136E-003  4.99981673E-001
Al  8.72723764E-001  1.27440175E-001  5.02485336E-001
Al  8.72530825E-001  6.57395823E-005  6.24946341E-001
Al  7.51544632E-001  1.24661513E-001  6.24112058E-001
Al  7.49991538E-001  1.82322572E-003  7.47612324E-001
Al  8.77360070E-001  1.24856770E-001  7.50623413E-001
Al  8.74554066E-001  -8.37267968E-004  8.74726718E-001
Al  7.49991231E-001  1.25820490E-001  8.72541073E-001
Al  7.49991230E-001  2.50251389E-001  -4.43962197E-004
Al  8.74981663E-001  3.77493108E-001  1.89263009E-003
Al  8.77121397E-001  2.52496183E-001  1.25808504E-001
Al  7.52360880E-001  3.76423012E-001  1.24759061E-001
Al  7.47526338E-001  2.49969647E-001  2.49785151E-001
Al  8.75302558E-001  3.76406163E-001  2.52352145E-001
Al  8.75411900E-001  2.50018673E-001  3.75675274E-001
Al  7.50019698E-001  3.74933216E-001  3.77458633E-001
Al  7.51458801E-001  2.50287972E-001  4.99776227E-001
Al  8.74915640E-001  3.76960744E-001  4.99635184E-001
Al  8.75021786E-001  2.49769250E-001  6.26232514E-001
Al  7.52251443E-001  3.73019873E-001  6.24990922E-001
Al  7.49585231E-001  2.47842806E-001  7.49667081E-001
Al  8.75983089E-001  3.75117000E-001  7.50104097E-001
Al  8.72512718E-001  2.51615274E-001  8.75023283E-001
Al  7.50046561E-001  3.74603939E-001  8.74584573E-001
Al  7.50483559E-001  5.00897011E-001  2.37885979E-003
Al  8.75119656E-001  6.22928207E-001  -2.45179482E-004
Al  8.76988640E-001  4.99807373E-001  1.24844055E-001
Al  7.52003742E-001  6.25022850E-001  1.24212704E-001
Al  7.49790890E-001  4.98189961E-001  2.52409283E-001
Al  8.75047305E-001  6.24810906E-001  2.49325242E-001
Al  8.74981439E-001  5.00291010E-001  3.75031834E-001
Al  7.50118720E-001  6.24902809E-001  3.72602545E-001
Al  7.48556463E-001  4.99339808E-001  4.99981566E-001
Al  8.77379612E-001  6.24605742E-001  5.00678142E-001
Al  8.74896664E-001  5.00019281E-001  6.22827889E-001
Al  7.50017889E-001  6.24759232E-001  6.24940949E-001
Al  7.49336549E-001  5.01342052E-001  7.47636212E-001
Al  8.77478064E-001  6.22585905E-001  7.51940487E-001
Al  8.74845092E-001  4.99946216E-001  8.72600720E-001
Al  7.48518461E-001  6.24697941E-001  8.74961157E-001
Al  7.51980925E-001  7.49305856E-001  7.41394522E-005
Al  8.75019438E-001  8.77431972E-001  6.66473534E-004
Al  8.74157942E-001  7.50019269E-001  1.22780367E-001
Al  7.50246486E-001  8.73560320E-001  1.24632726E-001
Al  7.48558151E-001  7.47861515E-001  2.49825215E-001
Al  8.77193310E-001  8.76294721E-001  2.50035925E-001
Al  8.75244474E-001  7.50045906E-001  3.77499456E-001
Al  7.47848450E-001  8.76405417E-001  3.73786877E-001
Al  7.47571017E-001  7.51603096E-001  4.99447796E-001
Al  8.75050371E-001  8.73886399E-001  5.01779965E-001
Al  8.74862509E-001  7.48715755E-001  6.26372192E-001
Al  7.47661516E-001  8.75034345E-001  6.24933275E-001
Al  7.47916009E-001  7.48898780E-001  7.49611174E-001
Al  8.75075016E-001  8.74849252E-001  7.49963716E-001
Al  8.75018890E-001  7.50053888E-001  8.75310533E-001
Al  7.49664981E-001  8.72751263E-001  8.77006833E-001
K_POINTS automatic
2 2 2 1 1 1
