&CONTROL
restart_mode = 'from_scratch',
calculation = 'scf',
outdir = '/gpfs/bb/bxp912/scratch',
pseudo_dir = '/gpfs/bb/bxp912/pseudopotentials',
prefix = '2.48000000E-001',
etot_conv_thr = 1.00000000E-007,
forc_conv_thr = 1.00000000E-007,
nstep = 200,
tprnfor = .true.,
tstress = .true.,
disk_io = 'low',
/
&SYSTEM
ibrav = 14,
celldm(1) = 3.05001797E+001,
celldm(2) = 1.00000000E+000,
celldm(3) = 1.00000000E+000,
celldm(4) = 0.00000000E+000,
celldm(5) = 0.00000000E+000,
celldm(6) = 0.00000000E+000,
nat = 256,
ntyp = 1,
ecutwfc = 35,
ecutrho = 208,
occupations = 'smearing',
smearing = 'mv',
degauss = 5.00000007E-002,
/
&ELECTRONS
diagonalization = 'david',
mixing_mode = plain,
mixing_beta = 6.99999988E-001,
conv_thr = 1.00000000E-007,
/
&IONS
ion_dynamics = 'bfgs',
/
&CELL
cell_dynamics = 'bfgs',
press = 0.00000000E+000,
cell_factor = 2.00000000E+000,
/
ATOMIC_SPECIES
Al  2.69815390E+001  Al.pbe-n-kjpaw_psl.0.1.UPF
ATOMIC_POSITIONS crystal
Al  3.27894076E-004  -8.41637568E-005  3.92619215E-004
Al  1.25055246E-001  1.24860203E-001  -2.03644278E-003
Al  1.24866411E-001  -1.73088841E-003  1.26499405E-001
Al  3.14957616E-004  1.25090051E-001  1.23786629E-001
Al  2.02990961E-005  1.26956520E-003  2.52118722E-001
Al  1.25037388E-001  1.25988305E-001  2.49537229E-001
Al  1.24594771E-001  -4.95190963E-004  3.74467666E-001
Al  -3.37999850E-004  1.24932117E-001  3.73033734E-001
Al  2.24862029E-003  -2.06218852E-003  4.98223815E-001
Al  1.25065273E-001  1.22605454E-001  4.99880288E-001
Al  1.25023781E-001  -2.49276618E-005  6.24858785E-001
Al  -6.06855179E-004  1.22522020E-001  6.25021580E-001
Al  -2.34611335E-003  -3.03779239E-005  7.47573159E-001
Al  1.25121867E-001  1.25679768E-001  7.49598130E-001
Al  1.27494497E-001  8.07388935E-004  8.74492624E-001
Al  -1.07625455E-003  1.25869892E-001  8.74958334E-001
Al  4.55464288E-005  2.50256377E-001  6.48093103E-004
Al  1.24876712E-001  3.75646233E-001  -1.21578214E-004
Al  1.25111212E-001  2.50008451E-001  1.26853919E-001
Al  -1.64262894E-003  3.75211276E-001  1.24981760E-001
Al  -2.18479423E-003  2.48615469E-001  2.51348602E-001
Al  1.23554718E-001  3.75033123E-001  2.49946554E-001
Al  1.22675684E-001  2.52458948E-001  3.72682392E-001
Al  -7.15427316E-004  3.74991457E-001  3.77225654E-001
Al  -2.49217491E-003  2.48606850E-001  5.00029522E-001
Al  1.23678206E-001  3.73706438E-001  5.00460759E-001
Al  1.23268896E-001  2.48499587E-001  6.26735445E-001
Al  -2.92267070E-004  3.75087956E-001  6.24980699E-001
Al  8.49718988E-006  2.50793298E-001  7.48117342E-001
Al  1.23991549E-001  3.72500036E-001  7.48833382E-001
Al  1.25591228E-001  2.51953520E-001  8.73880989E-001
Al  -1.32145988E-003  3.72618915E-001  8.74116134E-001
Al  -2.46338011E-004  5.01640609E-001  -4.43209266E-004
Al  1.25284522E-001  6.22549512E-001  8.97724617E-006
Al  1.25018109E-001  4.99933128E-001  1.25078760E-001
Al  8.92097184E-004  6.22502938E-001  1.25284152E-001
Al  -2.18079253E-003  4.98949645E-001  2.49121309E-001
Al  1.26156165E-001  6.27195882E-001  2.49471394E-001
Al  1.25473247E-001  5.00009590E-001  3.72507924E-001
Al  1.92000735E-005  6.23507785E-001  3.74981771E-001
Al  -1.34534225E-003  4.99991622E-001  4.98830392E-001
Al  1.24991320E-001  6.22538869E-001  5.00019927E-001
Al  1.23860528E-001  4.99614764E-001  6.25039209E-001
Al  2.45761367E-003  6.27387914E-001  6.25117210E-001
Al  2.43589974E-003  4.99896344E-001  7.51739880E-001
Al  1.22944282E-001  6.26338341E-001  7.49789844E-001
Al  1.24926832E-001  5.00759090E-001  8.75019461E-001
Al  -8.73542657E-006  6.25018621E-001  8.72936063E-001
Al  1.79582158E-004  7.51216930E-001  1.81433113E-005
Al  1.27375402E-001  8.74981794E-001  -8.48378362E-006
Al  1.23591400E-001  7.50057539E-001  1.23971569E-001
Al  -1.99008523E-004  8.74982238E-001  1.25229854E-001
Al  -1.43214040E-003  7.49975239E-001  2.49991599E-001
Al  1.25045612E-001  8.75891705E-001  2.50018500E-001
Al  1.25018867E-001  7.52499950E-001  3.76335192E-001
Al  1.16281795E-003  8.75029811E-001  3.77141213E-001
Al  -1.85370638E-005  7.50927399E-001  4.98480478E-001
Al  1.23208258E-001  8.74686763E-001  4.98608114E-001
Al  1.22540208E-001  7.50963781E-001  6.23120375E-001
Al  2.48346326E-003  8.77154795E-001  6.25008405E-001
Al  1.14960643E-003  7.49392640E-001  7.48994593E-001
Al  1.26592850E-001  8.75591895E-001  7.49980528E-001
Al  1.25938433E-001  7.50052075E-001  8.75022800E-001
Al  -1.60170504E-003  8.74981811E-001  8.75167815E-001
Al  2.50077423E-001  3.61484558E-004  -7.94883770E-004
Al  3.76890355E-001  1.24008885E-001  -2.73690808E-004
Al  3.72515215E-001  3.98940844E-004  1.26836174E-001
Al  2.49798270E-001  1.24220663E-001  1.23639139E-001
Al  2.50075835E-001  2.46391645E-003  2.47515717E-001
Al  3.75008408E-001  1.25339193E-001  2.52482907E-001
Al  3.74596686E-001  -2.49853467E-003  3.74439033E-001
Al  2.52400379E-001  1.27061834E-001  3.75019914E-001
Al  2.48460141E-001  9.35774171E-006  4.99458201E-001
Al  3.74928866E-001  1.26382300E-001  4.97917668E-001
Al  3.72614527E-001  1.82596491E-003  6.26003695E-001
Al  2.48516736E-001  1.25052576E-001  6.22903638E-001
Al  2.52420037E-001  2.03479641E-003  7.49632737E-001
Al  3.74991612E-001  1.27233515E-001  7.50219960E-001
Al  3.74568003E-001  -2.49939598E-003  8.77067648E-001
Al  2.50767172E-001  1.24979636E-001  8.76941633E-001
Al  2.49973933E-001  2.47511272E-001  4.25208157E-005
Al  3.75997518E-001  3.76631542E-001  1.40879841E-003
Al  3.76375878E-001  2.50324802E-001  1.27499771E-001
Al  2.51325073E-001  3.74769049E-001  1.26817282E-001
Al  2.50139203E-001  2.49747016E-001  2.49965842E-001
Al  3.75024699E-001  3.75068338E-001  2.52350315E-001
Al  3.75019196E-001  2.47500094E-001  3.76461120E-001
Al  2.50253597E-001  3.74482193E-001  3.75019507E-001
Al  2.52307073E-001  2.47973810E-001  5.00208733E-001
Al  3.74885213E-001  3.75495002E-001  5.00594839E-001
Al  3.76470773E-001  2.50219827E-001  6.23344275E-001
Al  2.50056274E-001  3.74903511E-001  6.24956248E-001
Al  2.52405097E-001  2.50008475E-001  7.49990939E-001
Al  3.73816716E-001  3.72570969E-001  7.52404798E-001
Al  3.75620931E-001  2.51149310E-001  8.75871053E-001
Al  2.49926356E-001  3.72529357E-001  8.75940214E-001
Al  2.50227701E-001  4.99836948E-001  -2.48077208E-003
Al  3.76665594E-001  6.25099053E-001  2.43718924E-003
Al  3.77486387E-001  5.01515851E-001  1.23594373E-001
Al  2.47994583E-001  6.27489648E-001  1.25018410E-001
Al  2.47510299E-001  4.99922687E-001  2.48766683E-001
Al  3.76345474E-001  6.24246646E-001  2.50475815E-001
Al  3.74162872E-001  4.99839463E-001  3.75236150E-001
Al  2.48551440E-001  6.26574622E-001  3.72707540E-001
Al  2.51642620E-001  4.97641102E-001  4.99991580E-001
Al  3.72614991E-001  6.25704144E-001  4.98917277E-001
Al  3.74904031E-001  5.00022297E-001  6.26947885E-001
Al  2.51433417E-001  6.27334686E-001  6.25018111E-001
Al  2.50028977E-001  4.97707857E-001  7.50282353E-001
Al  3.74966820E-001  6.25018278E-001  7.50458647E-001
Al  3.75905353E-001  5.01753813E-001  8.74990573E-001
Al  2.48608079E-001  6.25832551E-001  8.75791253E-001
Al  2.51292692E-001  7.50576787E-001  5.97140600E-004
Al  3.73093239E-001  8.75022057E-001  -1.00458826E-003
Al  3.73224910E-001  7.49664888E-001  1.23552230E-001
Al  2.51920368E-001  8.75127169E-001  1.24944057E-001
Al  2.50037043E-001  7.49982665E-001  2.52457558E-001
Al  3.75041683E-001  8.74420796E-001  2.49972018E-001
Al  3.74965738E-001  7.49432492E-001  3.75201327E-001
Al  2.47690333E-001  8.75470575E-001  3.76719859E-001
Al  2.51995760E-001  7.49883760E-001  5.00033973E-001
Al  3.73247485E-001  8.75219585E-001  5.00008647E-001
Al  3.74686782E-001  7.47500678E-001  6.24961588E-001
Al  2.50020931E-001  8.74982076E-001  6.22713896E-001
Al  2.50211246E-001  7.49981756E-001  7.51554165E-001
Al  3.73249933E-001  8.74788449E-001  7.50032484E-001
Al  3.74678720E-001  7.50215257E-001  8.74991507E-001
Al  2.51266888E-001  8.75347967E-001  8.76595815E-001
Al  5.01308373E-001  -1.08408312E-003  1.23615428E-003
Al  6.22785094E-001  1.22558299E-001  2.43987597E-003
Al  6.23722997E-001  1.69715296E-004  1.27361982E-001
Al  4.99007339E-001  1.24877385E-001  1.24537205E-001
Al  5.01767363E-001  6.01335752E-004  2.52076948E-001
Al  6.25031939E-001  1.24964454E-001  2.49889471E-001
Al  6.24951126E-001  1.85369175E-005  3.74968150E-001
Al  4.97502418E-001  1.25082613E-001  3.72848687E-001
Al  5.00022528E-001  1.23032072E-003  5.00169786E-001
Al  6.25033859E-001  1.24981042E-001  5.02359255E-001
Al  6.27247493E-001  -1.90865215E-003  6.25684795E-001
Al  4.99991629E-001  1.22519608E-001  6.24922816E-001
Al  4.99061877E-001  2.03688988E-003  7.49923262E-001
Al  6.25908086E-001  1.25125464E-001  7.49295366E-001
Al  6.25161799E-001  9.01650834E-006  8.74991384E-001
Al  5.01565630E-001  1.25085164E-001  8.75008440E-001
Al  5.02447563E-001  2.49991618E-001  2.49988824E-003
Al  6.25008580E-001  3.74678188E-001  9.22426817E-004
Al  6.23969686E-001  2.49667595E-001  1.25704830E-001
Al  4.99891187E-001  3.73077616E-001  1.22697896E-001
Al  5.01502084E-001  2.50125819E-001  2.49921726E-001
Al  6.25018957E-001  3.73430515E-001  2.49934637E-001
Al  6.24757591E-001  2.48131972E-001  3.74476804E-001
Al  5.02314480E-001  3.73304159E-001  3.75177696E-001
Al  5.00114276E-001  2.50018983E-001  5.00235814E-001
Al  6.25053315E-001  3.75776324E-001  5.02185669E-001
Al  6.26863571E-001  2.49331185E-001  6.25525543E-001
Al  5.01572500E-001  3.73517528E-001  6.24991488E-001
Al  5.02389267E-001  2.50166006E-001  7.48130730E-001
Al  6.25276677E-001  3.74133226E-001  7.49946475E-001
Al  6.24838377E-001  2.50217975E-001  8.73445986E-001
Al  4.98340666E-001  3.77048740E-001  8.74981378E-001
Al  5.00144476E-001  4.98171735E-001  5.85794378E-005
Al  6.24680310E-001  6.25946228E-001  -9.24751714E-004
Al  6.25294588E-001  5.02470930E-001  1.25008881E-001
Al  5.00019679E-001  6.24981152E-001  1.26161881E-001
Al  4.99538091E-001  4.99826300E-001  2.51965546E-001
Al  6.24422100E-001  6.27456835E-001  2.52483270E-001
Al  6.25018125E-001  5.00398819E-001  3.76143676E-001
Al  5.00058680E-001  6.22501310E-001  3.76301739E-001
Al  4.99965627E-001  4.99443424E-001  5.02368741E-001
Al  6.25160886E-001  6.25181690E-001  5.02379424E-001
Al  6.22814194E-001  4.99615467E-001  6.27412094E-001
Al  4.99770949E-001  6.24707239E-001  6.24276134E-001
Al  4.97539914E-001  5.00019543E-001  7.50278849E-001
Al  6.22975076E-001  6.22542311E-001  7.47532719E-001
Al  6.25666660E-001  4.99403062E-001  8.72822501E-001
Al  5.00063704E-001  6.24977560E-001  8.74981869E-001
Al  5.00086084E-001  7.51088995E-001  7.02573862E-004
Al  6.24751460E-001  8.74939277E-001  4.21208848E-004
Al  6.26125643E-001  7.50072328E-001  1.23260186E-001
Al  5.01451959E-001  8.75320059E-001  1.24867881E-001
Al  5.00030509E-001  7.49990763E-001  2.51578362E-001
Al  6.27192769E-001  8.75312954E-001  2.49991620E-001
Al  6.27444888E-001  7.51705089E-001  3.75018707E-001
Al  4.99991124E-001  8.75018969E-001  3.72503879E-001
Al  5.01510151E-001  7.52323944E-001  4.99779740E-001
Al  6.25320387E-001  8.74158440E-001  5.00008374E-001
Al  6.22527912E-001  7.52084649E-001  6.24524825E-001
Al  4.99976234E-001  8.74958674E-001  6.25740072E-001
Al  5.00892777E-001  7.49577565E-001  7.51130233E-001
Al  6.24991306E-001  8.75269661E-001  7.48738406E-001
Al  6.26196278E-001  7.52497834E-001  8.72696215E-001
Al  5.01115810E-001  8.72965431E-001  8.73661345E-001
Al  7.48553447E-001  1.81284718E-005  1.64514151E-003
Al  8.74906450E-001  1.25500803E-001  -4.64617212E-005
Al  8.74579291E-001  8.93819992E-005  1.27371342E-001
Al  7.49732519E-001  1.25029918E-001  1.26230404E-001
Al  7.49973996E-001  -2.43938963E-003  2.49926315E-001
Al  8.74891217E-001  1.26741433E-001  2.47658585E-001
Al  8.74866999E-001  2.12198395E-003  3.73319365E-001
Al  7.50018539E-001  1.24032587E-001  3.72861784E-001
Al  7.49619793E-001  -2.57738037E-005  5.02354204E-001
Al  8.74889840E-001  1.24981722E-001  5.00008581E-001
Al  8.75040438E-001  2.36212660E-003  6.24941661E-001
Al  7.49520852E-001  1.24912294E-001  6.24852777E-001
Al  7.52327289E-001  -8.38894835E-006  7.50068658E-001
Al  8.75117774E-001  1.24465639E-001  7.50495032E-001
Al  8.74931479E-001  -3.03906701E-004  8.75994531E-001
Al  7.50280763E-001  1.25018623E-001  8.74981573E-001
Al  7.51265737E-001  2.50081185E-001  1.02836463E-003
Al  8.77488149E-001  3.77285878E-001  -5.05495104E-005
Al  8.74834999E-001  2.50154324E-001  1.23282828E-001
Al  7.49488894E-001  3.75018113E-001  1.24957845E-001
Al  7.51213908E-001  2.50096955E-001  2.49968201E-001
Al  8.76366292E-001  3.72638092E-001  2.49939389E-001
Al  8.77475073E-001  2.50098722E-001  3.75799422E-001
Al  7.51761648E-001  3.74898795E-001  3.74218523E-001
Al  7.51831280E-001  2.50228700E-001  4.99871322E-001
Al  8.77491401E-001  3.74580376E-001  4.98508808E-001
Al  8.75851343E-001  2.47850406E-001  6.27330110E-001
Al  7.48120939E-001  3.75037160E-001  6.24226361E-001
Al  7.48568939E-001  2.48930855E-001  7.48578054E-001
Al  8.76841670E-001  3.74981836E-001  7.50549255E-001
Al  8.77159137E-001  2.49434848E-001  8.72519077E-001
Al  7.49868069E-001  3.76745025E-001  8.77483027E-001
Al  7.49316712E-001  4.97663877E-001  -8.14679786E-005
Al  8.77201378E-001  6.23534299E-001  -1.10787806E-003
Al  8.72571900E-001  4.99931728E-001  1.26670312E-001
Al  7.48733030E-001  6.24700761E-001  1.26070301E-001
Al  7.50070824E-001  4.99044663E-001  2.50026599E-001
Al  8.72549552E-001  6.24885818E-001  2.51449668E-001
Al  8.75228981E-001  4.99884549E-001  3.74959830E-001
Al  7.51406051E-001  6.25267708E-001  3.72550672E-001
Al  7.50266009E-001  4.99991328E-001  4.99880034E-001
Al  8.73757502E-001  6.22856856E-001  4.99857217E-001
Al  8.73719092E-001  5.00127743E-001  6.22840351E-001
Al  7.47567686E-001  6.26222401E-001  6.23970782E-001
Al  7.50885158E-001  5.02488884E-001  7.48526923E-001
Al  8.75080468E-001  6.24973084E-001  7.50049783E-001
Al  8.74978591E-001  4.97937870E-001  8.75138015E-001
Al  7.50008588E-001  6.23238869E-001  8.74768384E-001
Al  7.49520127E-001  7.50018528E-001  1.81124021E-005
Al  8.76174648E-001  8.75067452E-001  -2.49538794E-003
Al  8.75367692E-001  7.49981549E-001  1.25409660E-001
Al  7.52445425E-001  8.76388619E-001  1.25035320E-001
Al  7.52131815E-001  7.49760401E-001  2.48774384E-001
Al  8.74587429E-001  8.75914209E-001  2.50130696E-001
Al  8.75645407E-001  7.49905534E-001  3.73688886E-001
Al  7.47812213E-001  8.72505208E-001  3.74291177E-001
Al  7.50008380E-001  7.49991113E-001  5.00657371E-001
Al  8.75257276E-001  8.74963107E-001  4.99889101E-001
Al  8.74443222E-001  7.48098455E-001  6.27162438E-001
Al  7.49205427E-001  8.75045684E-001  6.24470564E-001
Al  7.49964341E-001  7.50379095E-001  7.49948761E-001
Al  8.75070240E-001  8.74818204E-001  7.50018111E-001
Al  8.74973386E-001  7.50086041E-001  8.74758910E-001
Al  7.51483316E-001  8.73008393E-001  8.74950794E-001
K_POINTS automatic
2 2 2 1 1 1
