&CONTROL
restart_mode = 'from_scratch',
calculation = 'scf',
outdir = '/gpfs/bb/bxp912/scratch',
pseudo_dir = '/gpfs/bb/bxp912/pseudopotentials',
prefix = '2.48000000E-001',
etot_conv_thr = 1.00000000E-007,
forc_conv_thr = 1.00000000E-007,
nstep = 200,
tprnfor = .true.,
tstress = .true.,
disk_io = 'low',
/
&SYSTEM
ibrav = 14,
celldm(1) = 3.05001797E+001,
celldm(2) = 1.00000000E+000,
celldm(3) = 1.00000000E+000,
celldm(4) = 0.00000000E+000,
celldm(5) = 0.00000000E+000,
celldm(6) = 0.00000000E+000,
nat = 256,
ntyp = 1,
ecutwfc = 35,
ecutrho = 208,
occupations = 'smearing',
smearing = 'mv',
degauss = 5.00000007E-002,
/
&ELECTRONS
diagonalization = 'david',
mixing_mode = plain,
mixing_beta = 6.99999988E-001,
conv_thr = 1.00000000E-007,
/
&IONS
ion_dynamics = 'bfgs',
/
&CELL
cell_dynamics = 'bfgs',
press = 0.00000000E+000,
cell_factor = 2.00000000E+000,
/
ATOMIC_SPECIES
Al  2.69815390E+001  Al.pbe-n-kjpaw_psl.0.1.UPF
ATOMIC_POSITIONS crystal
Al  -1.86159750E-005  2.00638922E-003  1.99651965E-003
Al  1.26951045E-001  1.27304055E-001  7.66875115E-004
Al  1.26747238E-001  -6.49314765E-004  1.23336836E-001
Al  -2.45385517E-003  1.22527324E-001  1.25958474E-001
Al  7.19394771E-004  -3.34288826E-004  2.49647643E-001
Al  1.27390636E-001  1.25253712E-001  2.50026878E-001
Al  1.25043582E-001  1.36367477E-004  3.74991629E-001
Al  -2.32517791E-003  1.27496272E-001  3.73020091E-001
Al  7.43790254E-004  -1.25503042E-004  4.99991607E-001
Al  1.25018461E-001  1.23519878E-001  5.00008761E-001
Al  1.22852171E-001  -2.20355688E-003  6.25646772E-001
Al  1.38508672E-003  1.24937027E-001  6.25067786E-001
Al  1.67083946E-004  -5.81463967E-004  7.50152082E-001
Al  1.23247000E-001  1.24991454E-001  7.50215294E-001
Al  1.25420862E-001  1.39760844E-003  8.73870847E-001
Al  2.86633679E-004  1.24461608E-001  8.74931415E-001
Al  -3.57401208E-004  2.47528838E-001  -1.99520004E-003
Al  1.25044862E-001  3.75008861E-001  -1.81204807E-003
Al  1.27493252E-001  2.49540485E-001  1.24949731E-001
Al  -1.42820214E-004  3.75400762E-001  1.25261808E-001
Al  -2.13794630E-004  2.48544178E-001  2.49829919E-001
Al  1.25044597E-001  3.75909631E-001  2.51827297E-001
Al  1.22652763E-001  2.49945028E-001  3.75044369E-001
Al  -1.52456845E-004  3.74145941E-001  3.75775974E-001
Al  1.32559909E-003  2.50810394E-001  4.97729937E-001
Al  1.25178204E-001  3.75008375E-001  4.99509403E-001
Al  1.25150813E-001  2.47551186E-001  6.24838323E-001
Al  -7.33830705E-004  3.75207314E-001  6.22982698E-001
Al  -3.62937314E-004  2.52037447E-001  7.50049995E-001
Al  1.23455081E-001  3.75979156E-001  7.49877841E-001
Al  1.26534704E-001  2.50019011E-001  8.74319022E-001
Al  -4.11103105E-004  3.74975956E-001  8.72538842E-001
Al  8.25333593E-004  4.99981510E-001  -3.84307996E-004
Al  1.24495981E-001  6.24828173E-001  -2.44650866E-003
Al  1.27110387E-001  4.99991614E-001  1.26892520E-001
Al  -1.46788164E-003  6.22844370E-001  1.23317167E-001
Al  -1.46488542E-003  4.99655454E-001  2.50325097E-001
Al  1.24991117E-001  6.24870348E-001  2.51971947E-001
Al  1.22963538E-001  4.99216845E-001  3.75052897E-001
Al  -2.03166356E-003  6.24670959E-001  3.74600268E-001
Al  1.82065102E-003  5.00282408E-001  5.01597764E-001
Al  1.24979878E-001  6.24981557E-001  5.00285947E-001
Al  1.25008575E-001  5.00199594E-001  6.25336221E-001
Al  7.77970135E-005  6.26854670E-001  6.23593084E-001
Al  1.05042593E-004  4.99758007E-001  7.50225530E-001
Al  1.25125406E-001  6.25089100E-001  7.47548366E-001
Al  1.24708179E-001  4.99966301E-001  8.77322958E-001
Al  -6.41087765E-005  6.25188695E-001  8.74876905E-001
Al  7.58137240E-005  7.51813310E-001  1.81260277E-003
Al  1.25693886E-001  8.74262353E-001  -1.81378742E-003
Al  1.24775007E-001  7.52476251E-001  1.25157601E-001
Al  -9.02983244E-004  8.74968022E-001  1.27302748E-001
Al  -5.43704957E-004  7.50098836E-001  2.48611446E-001
Al  1.24918985E-001  8.74811110E-001  2.51512964E-001
Al  1.24219164E-001  7.47911436E-001  3.75153034E-001
Al  1.46504721E-004  8.75681371E-001  3.73151720E-001
Al  1.88693905E-005  7.50032198E-001  5.01842704E-001
Al  1.26492016E-001  8.73454185E-001  4.99909362E-001
Al  1.26490476E-001  7.50128584E-001  6.23978793E-001
Al  1.55034157E-004  8.74693872E-001  6.26221889E-001
Al  -2.47035876E-003  7.49981052E-001  7.50183960E-001
Al  1.25082164E-001  8.77499836E-001  7.52303190E-001
Al  1.27138063E-001  7.50081726E-001  8.73932760E-001
Al  4.57070649E-005  8.76482372E-001  8.72985973E-001
Al  2.52398872E-001  -1.46474770E-003  -6.51499233E-004
Al  3.74257879E-001  1.24876825E-001  -1.78699757E-003
Al  3.74032888E-001  -2.13846785E-003  1.25092594E-001
Al  2.50401660E-001  1.23406985E-001  1.22564153E-001
Al  2.50162503E-001  -8.05803671E-004  2.50032186E-001
Al  3.74990970E-001  1.25107965E-001  2.49635378E-001
Al  3.76179015E-001  2.48450872E-003  3.75826446E-001
Al  2.48665800E-001  1.27415893E-001  3.76121103E-001
Al  2.50160991E-001  6.68364827E-004  4.99755220E-001
Al  3.73022434E-001  1.24990283E-001  5.00830597E-001
Al  3.75246885E-001  2.48717046E-003  6.24558079E-001
Al  2.47793874E-001  1.27454597E-001  6.26157462E-001
Al  2.49991625E-001  -1.76723111E-003  7.48835198E-001
Al  3.74843049E-001  1.23633471E-001  7.50558284E-001
Al  3.72538716E-001  2.35762722E-003  8.75120769E-001
Al  2.50009288E-001  1.22646036E-001  8.77417749E-001
Al  2.47983166E-001  2.49954656E-001  -3.08502793E-004
Al  3.75018273E-001  3.74814670E-001  2.49762185E-003
Al  3.74448770E-001  2.48213550E-001  1.25786585E-001
Al  2.49981888E-001  3.75171941E-001  1.24690100E-001
Al  2.50246271E-001  2.49872901E-001  2.47609721E-001
Al  3.77269563E-001  3.74062321E-001  2.52151667E-001
Al  3.75180498E-001  2.49235895E-001  3.73598780E-001
Al  2.48720875E-001  3.74941428E-001  3.75063930E-001
Al  2.52481710E-001  2.48633650E-001  5.00504317E-001
Al  3.74163682E-001  3.74991582E-001  5.01579699E-001
Al  3.74019681E-001  2.49941904E-001  6.24760497E-001
Al  2.47501004E-001  3.73148083E-001  6.25177885E-001
Al  2.50055194E-001  2.49974976E-001  7.48995860E-001
Al  3.72506313E-001  3.76743296E-001  7.49052404E-001
Al  3.73721347E-001  2.50909841E-001  8.76120880E-001
Al  2.49873179E-001  3.74623232E-001  8.74779989E-001
Al  2.47543395E-001  5.01071095E-001  2.42132203E-003
Al  3.75046745E-001  6.22980633E-001  -6.21243031E-005
Al  3.74448750E-001  5.00170214E-001  1.26681008E-001
Al  2.49967882E-001  6.27106005E-001  1.25107066E-001
Al  2.50188315E-001  4.99240083E-001  2.47568047E-001
Al  3.74991021E-001  6.24991625E-001  2.49408452E-001
Al  3.73547711E-001  4.99797601E-001  3.75020171E-001
Al  2.47517203E-001  6.23805769E-001  3.75009043E-001
Al  2.49724100E-001  4.99399898E-001  4.99945072E-001
Al  3.74650138E-001  6.25023859E-001  4.98691653E-001
Al  3.74991442E-001  5.00018596E-001  6.26730258E-001
Al  2.47548553E-001  6.26980295E-001  6.25208861E-001
Al  2.52472218E-001  4.99199109E-001  7.48266837E-001
Al  3.75018462E-001  6.26035402E-001  7.51736805E-001
Al  3.74991593E-001  5.00661550E-001  8.72795728E-001
Al  2.51962145E-001  6.24702646E-001  8.75422790E-001
Al  2.49973206E-001  7.49856517E-001  2.03351110E-004
Al  3.77305642E-001  8.75657911E-001  -1.55609152E-003
Al  3.74746254E-001  7.52470254E-001  1.25356429E-001
Al  2.50076746E-001  8.74107604E-001  1.22524236E-001
Al  2.49981888E-001  7.49761600E-001  2.52011021E-001
Al  3.75984320E-001  8.73566772E-001  2.50125801E-001
Al  3.74696655E-001  7.50008462E-001  3.75018201E-001
Al  2.48962964E-001  8.74770007E-001  3.75606246E-001
Al  2.49904564E-001  7.51803964E-001  5.00762539E-001
Al  3.76576235E-001  8.75035459E-001  5.02020294E-001
Al  3.74015745E-001  7.49781966E-001  6.25402698E-001
Al  2.49786964E-001  8.72833396E-001  6.24990933E-001
Al  2.49954935E-001  7.49455574E-001  7.50018822E-001
Al  3.72592604E-001  8.74827476E-001  7.48675465E-001
Al  3.75257685E-001  7.51795673E-001  8.74954207E-001
Al  2.49885679E-001  8.75018198E-001  8.72503036E-001
Al  4.97729647E-001  2.45961514E-004  7.11551139E-005
Al  6.24772308E-001  1.24981732E-001  1.46559345E-003
Al  6.24520847E-001  -1.69423356E-003  1.24693440E-001
Al  5.01928256E-001  1.24980758E-001  1.24586860E-001
Al  5.02479028E-001  -9.57335308E-004  2.50008526E-001
Al  6.25110526E-001  1.27433143E-001  2.49961701E-001
Al  6.24903829E-001  6.17856727E-004  3.74722946E-001
Al  4.99003589E-001  1.24336008E-001  3.74387227E-001
Al  5.00818469E-001  1.31054912E-004  4.97598293E-001
Al  6.24712345E-001  1.27430957E-001  4.97502144E-001
Al  6.25717558E-001  -2.42842633E-003  6.24858091E-001
Al  4.99192502E-001  1.24635698E-001  6.25460512E-001
Al  5.00099715E-001  6.93460770E-005  7.52199135E-001
Al  6.22609984E-001  1.22571594E-001  7.49932285E-001
Al  6.27441661E-001  1.17522342E-003  8.74972292E-001
Al  4.97662679E-001  1.25008908E-001  8.72532300E-001
Al  5.00018166E-001  2.49991604E-001  -2.47152533E-003
Al  6.24856505E-001  3.74555336E-001  -4.06782747E-004
Al  6.24557582E-001  2.51748760E-001  1.27121793E-001
Al  5.00398483E-001  3.75056606E-001  1.24645227E-001
Al  4.99980969E-001  2.49275204E-001  2.49899934E-001
Al  6.24967550E-001  3.73724251E-001  2.51998204E-001
Al  6.22702227E-001  2.49947168E-001  3.75032008E-001
Al  4.99896500E-001  3.72806796E-001  3.75488118E-001
Al  5.01308355E-001  2.49929360E-001  4.99980634E-001
Al  6.24699621E-001  3.75009786E-001  4.97861928E-001
Al  6.25747767E-001  2.49738199E-001  6.25280404E-001
Al  4.99267182E-001  3.73172209E-001  6.27443199E-001
Al  5.01857747E-001  2.49677486E-001  7.47569249E-001
Al  6.25032873E-001  3.74279066E-001  7.50511312E-001
Al  6.26517835E-001  2.50029422E-001  8.74440543E-001
Al  5.00139606E-001  3.75091357E-001  8.74474790E-001
Al  5.02494449E-001  5.00933909E-001  1.17096344E-004
Al  6.27235340E-001  6.25126722E-001  1.57804426E-003
Al  6.26236909E-001  5.01465035E-001  1.22616517E-001
Al  5.01204168E-001  6.27017239E-001  1.22577228E-001
Al  5.00613857E-001  5.00019134E-001  2.49655762E-001
Al  6.25009169E-001  6.22941084E-001  2.49981584E-001
Al  6.22547899E-001  5.02492363E-001  3.75372747E-001
Al  4.99930335E-001  6.24964640E-001  3.74982292E-001
Al  4.98980631E-001  5.00220808E-001  5.02470521E-001
Al  6.26555133E-001  6.27318178E-001  4.97787182E-001
Al  6.25117267E-001  5.01716217E-001  6.26524201E-001
Al  5.01810659E-001  6.25801077E-001  6.23295812E-001
Al  5.01855507E-001  4.99673808E-001  7.48427871E-001
Al  6.24937903E-001  6.24873391E-001  7.50050341E-001
Al  6.27249643E-001  4.99118183E-001  8.72734325E-001
Al  4.98651302E-001  6.23962060E-001  8.74178409E-001
Al  5.02498791E-001  7.51376508E-001  5.53824885E-004
Al  6.26905293E-001  8.74836578E-001  -1.85059087E-004
Al  6.24761602E-001  7.49240203E-001  1.27186860E-001
Al  5.00354590E-001  8.74978275E-001  1.23353157E-001
Al  5.00217939E-001  7.49209361E-001  2.51875731E-001
Al  6.25021907E-001  8.74164309E-001  2.52390148E-001
Al  6.25138950E-001  7.47926076E-001  3.74536734E-001
Al  5.01417723E-001  8.75244739E-001  3.74389700E-001
Al  4.99786268E-001  7.47501559E-001  4.98339875E-001
Al  6.23817019E-001  8.75986189E-001  5.00073324E-001
Al  6.25081274E-001  7.49413708E-001  6.25859053E-001
Al  5.01776601E-001  8.75529081E-001  6.27400350E-001
Al  5.00039063E-001  7.51288357E-001  7.50008399E-001
Al  6.25324320E-001  8.72749419E-001  7.50026718E-001
Al  6.24910092E-001  7.50157149E-001  8.75041043E-001
Al  4.99991008E-001  8.75152894E-001  8.75173007E-001
Al  7.50138250E-001  1.84905626E-005  1.61100497E-003
Al  8.76040646E-001  1.24611399E-001  -1.86075499E-003
Al  8.75028779E-001  2.37810665E-003  1.24873900E-001
Al  7.48547785E-001  1.25008998E-001  1.24259574E-001
Al  7.49968348E-001  5.14475373E-004  2.48781638E-001
Al  8.73779013E-001  1.25261978E-001  2.49922410E-001
Al  8.73700223E-001  -2.47977948E-003  3.75029954E-001
Al  7.48626070E-001  1.23836648E-001  3.75035120E-001
Al  7.50018499E-001  -9.97293928E-005  5.00638991E-001
Al  8.75541253E-001  1.22504359E-001  5.00143512E-001
Al  8.72859863E-001  -1.48832055E-003  6.25008431E-001
Al  7.49957631E-001  1.22708948E-001  6.24807220E-001
Al  7.48462243E-001  1.60363572E-003  7.48940714E-001
Al  8.74177931E-001  1.25174793E-001  7.50008398E-001
Al  8.76606816E-001  -1.20888137E-003  8.77496111E-001
Al  7.50110763E-001  1.25018823E-001  8.74865362E-001
Al  7.52198285E-001  2.49980203E-001  -2.23874683E-004
Al  8.73688332E-001  3.74974540E-001  -1.20059381E-003
Al  8.74990998E-001  2.50029139E-001  1.25008522E-001
Al  7.52213152E-001  3.75019263E-001  1.22674806E-001
Al  7.48162200E-001  2.49976314E-001  2.52418963E-001
Al  8.74976525E-001  3.73941143E-001  2.47502645E-001
Al  8.76255589E-001  2.49794186E-001  3.74778412E-001
Al  7.52352216E-001  3.74815750E-001  3.75166458E-001
Al  7.50338050E-001  2.50439254E-001  4.99640079E-001
Al  8.75049583E-001  3.76314469E-001  5.00500487E-001
Al  8.77376442E-001  2.52433695E-001  6.25271087E-001
Al  7.49980364E-001  3.74937550E-001  6.22519045E-001
Al  7.50008914E-001  2.49965252E-001  7.51694736E-001
Al  8.74806239E-001  3.75082108E-001  7.49979411E-001
Al  8.75017276E-001  2.50518902E-001  8.75354218E-001
Al  7.49782959E-001  3.73269695E-001  8.74981623E-001
Al  7.49366625E-001  4.99072930E-001  1.38961185E-003
Al  8.75977759E-001  6.25121718E-001  9.02348036E-006
Al  8.74042460E-001  5.00067149E-001  1.24938494E-001
Al  7.50018182E-001  6.26472841E-001  1.24981508E-001
Al  7.47757604E-001  4.97500003E-001  2.50556074E-001
Al  8.75035342E-001  6.24960951E-001  2.51929663E-001
Al  8.76894448E-001  5.02412261E-001  3.75314629E-001
Al  7.52163236E-001  6.27499241E-001  3.74981766E-001
Al  7.50008455E-001  5.02280456E-001  4.98608362E-001
Al  8.77053095E-001  6.23049795E-001  5.02432532E-001
Al  8.72505807E-001  4.99990527E-001  6.22646600E-001
Al  7.50148865E-001  6.25123180E-001  6.27450814E-001
Al  7.48810003E-001  5.00008872E-001  7.47834728E-001
Al  8.74700754E-001  6.22525631E-001  7.49981087E-001
Al  8.75587211E-001  4.99872188E-001  8.77462555E-001
Al  7.47869638E-001  6.26899614E-001  8.75055408E-001
Al  7.48804108E-001  7.47501092E-001  2.42911887E-003
Al  8.72866151E-001  8.74964446E-001  2.38630021E-003
Al  8.72500859E-001  7.51958552E-001  1.26508815E-001
Al  7.48110543E-001  8.77394487E-001  1.27060714E-001
Al  7.51047984E-001  7.49308168E-001  2.49007671E-001
Al  8.77386074E-001  8.74938833E-001  2.49182434E-001
Al  8.77499421E-001  7.51929219E-001  3.74976046E-001
Al  7.49981102E-001  8.75165420E-001  3.75351102E-001
Al  7.48839235E-001  7.52394412E-001  4.99010302E-001
Al  8.76062208E-001  8.75152314E-001  5.00156932E-001
Al  8.74923255E-001  7.50230005E-001  6.25018109E-001
Al  7.47911924E-001  8.74475346E-001  6.25019806E-001
Al  7.50079217E-001  7.48362417E-001  7.52321722E-001
Al  8.75690497E-001  8.74212716E-001  7.52484513E-001
Al  8.72516416E-001  7.51884159E-001  8.74957852E-001
Al  7.51957956E-001  8.74333435E-001  8.76243977E-001
K_POINTS automatic
2 2 2 1 1 1
